17
Symbol, X, Y, Z atomic coordinates followed by atomic charges from H, SH, CM5, AVH-B, HLYGAt
Cl   -0.4513960001    2.3208120017    0.0000000000  -0.120306  -0.128686  -0.126661  -0.218819  -0.123010
C    -0.4908380002    0.5075319997    0.0000000000   0.026177   0.025482  -0.035131   0.225648  -0.318003
H    -1.5609350009    0.2551940002    0.0000000000   0.037618   0.063751   0.097704  -0.034866   0.271553
C     0.1675220001   -0.0409740000    1.2573509987  -0.059027  -0.142040  -0.160329  -0.019496  -0.314898
C     0.1675220001   -0.0409740000   -1.2573509987  -0.059027  -0.142332  -0.160329  -0.019607  -0.314898
H    -0.8853119974   -1.9285920020    1.2766810008   0.015401   0.026720   0.078298  -0.112033   0.052154
H     0.6999940006   -1.9647819976    2.0824800000   0.038143   0.066650   0.102262  -0.065620   0.076458
H     0.9394890015   -3.0323080024    0.0000000000   0.100116   0.202972   0.293632   0.180598   0.332311
H    -0.3634629998    0.3144390001    2.1503769975   0.036466   0.072058   0.091929  -0.014460   0.137443
H     1.2049350011    0.3192539999    1.3100570012   0.034481   0.069582   0.093406  -0.021156   0.199592
C     0.1647900000   -1.5693169986    1.2093240022  -0.012111  -0.039190  -0.060529   0.403524   0.090344
H    -0.3634629998    0.3144390001   -2.1503769975   0.036466   0.072180   0.091929  -0.014410   0.137443
C     0.1647900000   -1.5693169986   -1.2093240022  -0.012111  -0.039090  -0.060529   0.403264   0.090344
H     1.2049350011    0.3192539999   -1.3100570012   0.034481   0.069725   0.093406  -0.021162   0.199592
N     0.8241400009   -2.0265060000    0.0000000000  -0.150300  -0.271011  -0.519621  -0.493918  -0.645038
H     0.6999940006   -1.9647819976   -2.0824800000   0.038143   0.066676   0.102262  -0.065548   0.076458
H    -0.8853119974   -1.9285920020   -1.2766810008   0.015401   0.026566   0.078298  -0.111928   0.052154
19
Symbol, X, Y, Z atomic coordinates followed by atomic charges from H, SH, CM5, AVH-B, HLYGAt
C     0.6294669976    2.2910359991    0.0000000000  -0.049370  -0.129887  -0.133001   0.408864  -0.643045
N     0.5407600004    0.8503699976    0.0000000000  -0.098998  -0.112065  -0.380503  -0.410062  -0.019507
C    -0.1050469999   -1.1818320025    1.2007310003  -0.019035  -0.050986  -0.062245   0.322227  -0.032720
C    -0.1050469999   -1.1818320025   -1.2007310003  -0.019035  -0.051073  -0.062245   0.331000  -0.032720
N    -0.7654290011   -1.6606240021    0.0000000000  -0.153795  -0.271633  -0.520795  -0.477020  -0.610342
C    -0.0998710001    0.3395970001   -1.1989830010  -0.018067  -0.051532  -0.058447   0.260231  -0.329437
C    -0.0998710001    0.3395970001    1.1989830010  -0.018067  -0.051482  -0.058447   0.259516  -0.329437
H     0.9443619987   -1.5338050008    1.2753189992   0.015421   0.028077   0.080909  -0.100172   0.086737
H     0.9443619987   -1.5338050008   -1.2753189992   0.015421   0.028221   0.080909  -0.102325   0.086737
H     1.1763090011    2.6337739978   -0.8891010015   0.033486   0.065187   0.094720  -0.073025   0.214083
H    -1.1489439987    0.7015479983   -1.2782709984   0.014646   0.027708   0.081131  -0.092661   0.170862
H    -1.1489439987    0.7015479983    1.2782709984   0.014646   0.027696   0.081131  -0.091881   0.170862
H     0.4481170001    0.7083869999    2.0778910017   0.033180   0.060120   0.098720  -0.055831   0.160794
H    -0.6489890011   -1.5439660023    2.0835949975   0.034611   0.061600   0.099046  -0.060674   0.109844
H    -0.6489890011   -1.5439660023   -2.0835949975   0.034611   0.061565   0.099046  -0.063106   0.109844
H    -0.8494020002   -2.6696659978    0.0000000000   0.097855   0.199166   0.291419   0.179558   0.343752
H     0.4481170001    0.7083869999   -2.0778910017   0.033180   0.060150   0.098720  -0.056589   0.160794
H     1.1763090011    2.6337739978    0.8891010015   0.033486   0.065355   0.094720  -0.072997   0.214083
H    -0.3690480001    2.7804670008    0.0000000000   0.015913   0.033902   0.075207  -0.104966   0.168818
11
Symbol, X, Y, Z atomic coordinates followed by atomic charges from H, SH, CM5, AVH-B, HLYGAt
C     0.0000000000    0.0418100000    0.3619400002   0.080650   0.121065   0.031010   0.338293   0.531085
C    -1.2716269986   -0.6402529998   -0.0979339998  -0.093841  -0.239783  -0.237892   0.103641  -0.579740
H    -1.2903790016   -0.7164700018   -1.1940039991   0.037458   0.079114   0.089574  -0.036821   0.166566
H    -2.1522899996   -0.0752210001    0.2326790000   0.039316   0.082445   0.091081  -0.030427   0.152027
H    -1.3291220020   -1.6536880023    0.3233829998   0.038942   0.081102   0.090232  -0.034394   0.145651
F     0.0000000000    1.3507380021   -0.1345000001  -0.159507  -0.176922  -0.190618  -0.278367  -0.305098
C     1.2716269986   -0.6402529998   -0.0979339998  -0.093841  -0.239863  -0.237892   0.105306  -0.579740
H     0.0000000000    0.1396279998    1.4592399999   0.035098   0.050157   0.093619  -0.064385   0.005004
H     1.2903800017   -0.7164700018   -1.1940029990   0.037458   0.079127   0.089575  -0.037254   0.166566
H     1.3291230021   -1.6536880023    0.3233829998   0.038942   0.081163   0.090232  -0.034823   0.145651
H     2.1522899996   -0.0752210001    0.2326790000   0.039316   0.082386   0.091081  -0.030777   0.152027
14
Symbol, X, Y, Z atomic coordinates followed by atomic charges from H, SH, CM5, AVH-B, HLYGAt
N    -2.7740339998    0.0000000000   -0.0569070002  -0.173236  -0.426468  -0.627828  -0.485706  -0.748881
C    -1.3818760010    0.0000000000   -0.0056450000   0.038813   0.092194   0.088124   0.219473   0.293277
C     1.4080419990    0.0000000000    0.0021050000   0.071654   0.125958   0.085802   0.241588   0.407077
C    -0.6637319999    1.2049040019   -0.0052140000  -0.061973  -0.117577  -0.108913  -0.100384  -0.222338
C    -0.6637319999   -1.2049030017   -0.0052140000  -0.061973  -0.117802  -0.108913  -0.100099  -0.222336
C     0.7280939984   -1.2086339974   -0.0006300000  -0.053961  -0.119108  -0.103913  -0.097000  -0.319825
C     0.7280939984    1.2086339974   -0.0006310000  -0.053961  -0.119440  -0.103913  -0.096580  -0.319824
H    -1.2034889979    2.1537290018   -0.0128230000   0.041015   0.078034   0.099571   0.031724   0.172468
H    -1.2034899980   -2.1537280016   -0.0128220000   0.041015   0.078067   0.099571   0.031669   0.172467
H     1.2877460010   -2.1439909981    0.0006400000   0.052164   0.099149   0.108685   0.050971   0.186924
H     1.2877460010    2.1439909981    0.0006390000   0.052164   0.099276   0.108685   0.050848   0.186923
F     2.7544720011    0.0000000000    0.0075040000  -0.118121  -0.134566  -0.145370  -0.194482  -0.230890
H    -3.2324580003    0.8395910017    0.2665780001   0.113193   0.231157   0.304220   0.223976   0.322479
H    -3.2324580003   -0.8395900016    0.2665790002   0.113193   0.231111   0.304220   0.223988   0.322479
9
Symbol, X, Y, Z atomic coordinates followed by atomic charges from H, SH, CM5, AVH-B, HLYGAt
H     1.2010590003   -1.9108090019    0.0000000000   0.048232   0.089206   0.111890   0.034542   0.089086
C     0.6324399999   -0.9847359973    0.0000000000  -0.042519  -0.068869  -0.013194   0.034244   0.187949
C     1.1156540001    0.2993450001    0.0000000000  -0.041308  -0.087856  -0.017814  -0.010609  -0.378956
N    -0.7383209989   -0.9790799978    0.0000000000  -0.208848  -0.247433  -0.394430  -0.381019  -0.520633
H     2.1224380019    0.7028569975    0.0000000000   0.053602   0.097911   0.116961   0.046766   0.212939
H    -0.0131060000    2.1089160001    0.0000000000   0.147926   0.277383   0.342398   0.253433   0.290361
H    -2.1048829977    0.6660380007    0.0000000000   0.057793   0.093989   0.129483   0.008625   0.096789
N    -0.0004500000    1.1010240018    0.0000000000  -0.047682  -0.186075  -0.410808  -0.255548  -0.160238
C    -1.0873990010    0.2819390001    0.0000000000   0.032803   0.031744   0.135507   0.269566   0.182703
8
Symbol, X, Y, Z atomic coordinates followed by atomic charges from H, SH, CM5, AVH-B, HLYGAt
C     0.0000050000    0.7620370017    0.0000000000  -0.088447  -0.189222  -0.238975   0.175217  -0.032716
C    -0.0000050000   -0.7620370017    0.0000000000  -0.088447  -0.189519  -0.238975   0.178427  -0.032716
H    -1.0237950012    1.1621589983    0.0000000000   0.029483   0.063119   0.079658  -0.058594   0.010910
H     1.0237950012   -1.1621589983    0.0000000000   0.029483   0.063101   0.079658  -0.059125   0.010910
H    -0.5118999999   -1.1621609986    0.8866379991   0.029483   0.063170   0.079658  -0.059150   0.010903
H    -0.5118999999   -1.1621609986   -0.8866379991   0.029483   0.063176   0.079658  -0.059344   0.010903
H     0.5118999999    1.1621609986    0.8866379991   0.029483   0.063114   0.079658  -0.058674   0.010903
H     0.5118999999    1.1621609986   -0.8866379991   0.029483   0.063064   0.079658  -0.058753   0.010903
19
Symbol, X, Y, Z atomic coordinates followed by atomic charges from H, SH, CM5, AVH-B, HLYGAt
C     2.8123030003   -2.1381280003    0.0000000000  -0.091855  -0.273422  -0.226893   0.049859  -0.633822
C     1.3594449992   -1.7041579984    0.0000000000   0.174930   0.297565   0.267666   0.555252   0.873025
O     0.4421040002   -2.4990749974    0.0000000000  -0.280993  -0.345504  -0.332131  -0.482979  -0.590369
N     1.1934730015   -0.3414029999    0.0000000000  -0.072903  -0.232153  -0.427131  -0.395471  -0.821768
C     0.0046780000    0.4113590001    0.0000000000   0.046284   0.091770   0.098433   0.241110   0.671447
H     2.0430870006    0.2043750001    0.0000000000   0.124064   0.246607   0.322135   0.223475   0.357482
C    -2.2696480004    2.0534079989    0.0000000000  -0.052925  -0.094461  -0.108093  -0.080735  -0.246474
C    -1.2726660010   -0.1624369997    0.0000000000  -0.053276  -0.109492  -0.100105  -0.126077  -0.431702
C     0.1318480000    1.8080409989    0.0000000000  -0.063277  -0.120470  -0.110028  -0.143357  -0.459833
C    -0.9956589981    2.6202619975    0.0000000000  -0.041889  -0.074020  -0.096820   0.029013  -0.024436
C    -2.3934380020    0.6664000003    0.0000000000  -0.036328  -0.069062  -0.091164   0.035927  -0.027649
H    -1.3748449980   -1.2434940013    0.0000000000   0.038928   0.081995   0.106455   0.035703   0.236869
H     1.1263930007    2.2608490005    0.0000000000   0.037284   0.069865   0.096306   0.029637   0.185424
H    -0.8756379977    3.7045370008    0.0000000000   0.043633   0.081000   0.099008   0.018963   0.126940
H    -3.3839650025    0.2090689999    0.0000000000   0.045349   0.083249   0.100804   0.019592   0.123487
H    -3.1560259988    2.6883619980    0.0000000000   0.041526   0.078900   0.096858   0.030157   0.145843
H     2.8511620016   -3.2305779978    0.0000000000   0.052428   0.107686   0.107712  -0.001619   0.177976
H     3.3328710007   -1.7556139997    0.8896349995   0.044509   0.089960   0.098502  -0.019218   0.168781
H     3.3328700005   -1.7556139997   -0.8896349995   0.044509   0.089985   0.098502  -0.019232   0.168781
12
Symbol, X, Y, Z atomic coordinates followed by atomic charges from H, SH, CM5, AVH-B, HLYGAt
H    -2.3781819976   -0.2515090001   -0.8850770004   0.050618   0.102833   0.104540  -0.005265   0.260261
C    -1.8108439977   -0.5650530022    0.0001230000  -0.093109  -0.267045  -0.228084   0.056817  -0.913617
H    -2.3782100017   -0.2514679999    0.8852899995   0.050618   0.102759   0.104540  -0.005266   0.260263
C    -0.4821040002    0.1622109998    0.0001260000   0.162393   0.286066   0.255412   0.530274   0.711061
H    -1.7162980009   -1.6588539996    0.0001490000   0.033990   0.069398   0.088835  -0.035512   0.214798
O    -0.4211370000    1.3786509992    0.0001320000  -0.318765  -0.383378  -0.366583  -0.527238  -0.551418
N     0.6249640012   -0.6314610009    0.0001240000  -0.085941  -0.232981  -0.458793  -0.440865  -0.369564
C     1.9687830006   -0.1026020001    0.0001250000  -0.037894  -0.140426  -0.122457   0.397550  -0.223453
H     0.4994020000   -1.6311900015    0.0001210000   0.120211   0.237210   0.316560   0.215399   0.283864
H     1.8986329994    0.9904140000    0.0001310000   0.046148   0.091068   0.114346  -0.046257   0.130443
H     2.5217120025   -0.4239740000   -0.8938540024   0.035860   0.067228   0.095844  -0.069838   0.098679
H     2.5217149977   -0.4239839999    0.8940980008   0.035860   0.067256   0.095844  -0.069811   0.098680
13
Symbol, X, Y, Z atomic coordinates followed by atomic charges from H, SH, CM5, AVH-B, HLYGAt
H    -3.0048090017   -0.2989819999   -0.8940300015   0.036179   0.067430   0.096143  -0.069434   0.078419
C    -2.4332079978   -0.0114470000    0.0000320000  -0.034384  -0.135841  -0.118500   0.401104  -0.084000
H    -2.3049119993    1.0762240007    0.0000260000   0.047475   0.092248   0.114928  -0.047662   0.087578
N    -1.1240940009   -0.6164329978    0.0000350000  -0.094048  -0.256233  -0.461775  -0.479199  -0.538895
H    -3.0048080015   -0.2989720000    0.8940970006   0.036179   0.067488   0.096143  -0.069430   0.078419
C     0.0202680000    0.1108350000    0.0000330000   0.213318   0.362944   0.345751   0.741996   0.833000
H    -1.0304169978   -1.6200860009    0.0000380000   0.125783   0.248267   0.326926   0.229896   0.321024
O     0.0919960002    1.3196260016    0.0000280000  -0.314749  -0.389478  -0.361971  -0.556604  -0.559524
O     1.0940420006   -0.7043189977    0.0000340000  -0.139316  -0.189412  -0.229188  -0.399771  -0.406866
C     2.3589809983   -0.0620260002    0.0000290000  -0.004395  -0.098393  -0.119040   0.433548  -0.130032
H     2.4761559990    0.5656690015    0.8931049997   0.041434   0.074924   0.102651  -0.064583   0.097178
H     2.4761539987    0.5656590000   -0.8930539976   0.041434   0.074936   0.102651  -0.064592   0.097179
H     3.1034519995   -0.8640100006    0.0000330000   0.045103   0.081134   0.105274  -0.055257   0.126521
16
Symbol, X, Y, Z atomic coordinates followed by atomic charges from H, SH, CM5, AVH-B, HLYGAt
H    -0.3342180000    2.1844250001   -0.2930030002   0.038003   0.073964   0.092991  -0.028775   0.100569
C     0.1089700001    1.2777919978    0.1391429999  -0.055810  -0.130700  -0.161620   0.130641  -0.136213
H    -0.0447770000    1.3244060012    1.2289560004   0.032122   0.064319   0.088817  -0.045580   0.128254
C     1.6059630020    1.1872409979   -0.1736090001  -0.054577  -0.131417  -0.161260  -0.005920  -0.016118
C    -0.5869200016    0.0373660000   -0.4002649999   0.018955   0.001373  -0.041468   0.058221  -0.420503
H     2.1331680012   -0.2006800002    1.4066569993   0.027045   0.043984   0.089625  -0.096306   0.078667
H     3.2111139974   -0.2760390002   -0.0124040000   0.043196   0.072809   0.106524  -0.060833   0.082323
H    -0.0224110000   -1.2885140012    1.2105320026   0.027967   0.047483   0.091423  -0.087098   0.145396
H     2.1464079991    2.0131540017    0.3100910002   0.039754   0.076222   0.094234  -0.016290   0.023725
H     1.7703670000    1.2778920017   -1.2582329995   0.034084   0.066680   0.091042  -0.029293   0.073376
C     2.1680840025   -0.1477350000    0.3007720000   0.020280  -0.005810  -0.057121   0.429955  -0.001767
Cl   -2.3304170020    0.0094630000    0.0723129999  -0.108096  -0.115567  -0.114591  -0.192429  -0.109456
C     0.0932480002   -1.2315409993    0.1111699999   0.014086  -0.024739  -0.059885   0.409300  -0.111163
H    -0.5775139983    0.0359970000   -1.4979289978   0.043784   0.075534   0.104952  -0.002777   0.293435
O     1.4507330000   -1.2321010011   -0.2473229998  -0.164797  -0.190200  -0.271695  -0.411370  -0.292333
H    -0.3622640001   -2.1244689999   -0.3320399998   0.044000   0.076057   0.108037  -0.051451   0.161806
4
Symbol, X, Y, Z atomic coordinates followed by atomic charges from H, SH, CM5, AVH-B, HLYGAt
C     0.0000000000    0.5255889999    0.0000000000   0.125834   0.133518   0.077364   0.577667   0.375265
O     0.0000000000   -0.6731099991    0.0000000000  -0.220064  -0.260300  -0.285414  -0.432030  -0.403680
H     0.9461469981    1.1148910006    0.0000000000   0.047113   0.063452   0.104025  -0.072820   0.014207
H    -0.9461469981    1.1148910006    0.0000000000   0.047113   0.063325   0.104025  -0.072821   0.014207
14
Symbol, X, Y, Z atomic coordinates followed by atomic charges from H, SH, CM5, AVH-B, HLYGAt
C    -0.7870430009   -0.6718510018    0.2571199999   0.047660   0.024181  -0.032514   0.502096  -0.071227
C     0.4318500000    0.0118820000   -0.3392860000  -0.019022  -0.035404  -0.093056  -0.207180   0.376755
H     0.3022370001   -0.0018090000   -1.4340980022   0.033637   0.061197   0.092384  -0.002887   0.027538
C     1.6873530023   -0.7889979985    0.0088220000  -0.086659  -0.204475  -0.233485   0.276720  -0.666401
C     0.5381519982    1.4648849978    0.1203229997  -0.091042  -0.207807  -0.237044   0.265635  -0.551495
H    -0.8596780025   -1.7182109977   -0.0752039997   0.036794   0.058156   0.092647  -0.079293   0.090057
F    -1.9552130025   -0.0325810000   -0.1341179998  -0.150368  -0.163676  -0.183803  -0.278409  -0.232699
H    -0.7528040024   -0.6489419996    1.3586769990   0.035572   0.056347   0.091732  -0.084294   0.104477
H     1.6262849997   -1.8227080026   -0.3602590000   0.032269   0.067893   0.083420  -0.065837   0.152767
H     1.8416880016   -0.8253900021    1.0982880021   0.030891   0.065733   0.082516  -0.071467   0.159020
H     2.5769100012   -0.3241270002   -0.4365399998   0.035662   0.074288   0.087012  -0.059112   0.183801
H    -0.3727489999    2.0263400024   -0.1222109998   0.033284   0.071791   0.085852  -0.061645   0.144651
H     1.3884440003    1.9647589995   -0.3635090001   0.032071   0.068313   0.083342  -0.062743   0.135304
H     0.6921160019    1.5168509990    1.2094690020   0.029246   0.063456   0.080987  -0.071590   0.147452
10
Symbol, X, Y, Z atomic coordinates followed by atomic charges from H, SH, CM5, AVH-B, HLYGAt
H     2.5241940024   -0.0412640000   -0.0000020000   0.136294   0.274646   0.331598   0.266902   0.465976
N     1.6595489998   -0.5558910026   -0.0000010000  -0.149741  -0.464940  -0.605354  -0.578350  -1.122878
C     0.4915810000    0.1358309999    0.0000000000   0.214896   0.375561   0.345093   0.781515   1.006715
H     1.6694830001   -1.5625249985   -0.0000020000   0.129781   0.263409   0.326389   0.255225   0.448542
O     0.3959940000    1.3408619995    0.0000000000  -0.321894  -0.398824  -0.366694  -0.577278  -0.614178
O    -0.5579399979   -0.7054060018    0.0000000000  -0.136946  -0.186316  -0.226432  -0.401511  -0.351962
C    -1.8398880000   -0.0955630002    0.0000010000  -0.003301  -0.099089  -0.118059   0.432091  -0.188284
H    -1.9719769979    0.5289399998   -0.8931950022   0.042457   0.076511   0.103643  -0.062406   0.112866
H    -1.9719759977    0.5289390002    0.8931970025   0.042457   0.076527   0.103643  -0.062369   0.112866
H    -2.5631830014   -0.9164699992    0.0000010000   0.046007   0.082524   0.106173  -0.053809   0.130337
16
Symbol, X, Y, Z atomic coordinates followed by atomic charges from H, SH, CM5, AVH-B, HLYGAt
H     0.7178540013    1.5235369996    1.0589970017   0.026512   0.059411   0.079251  -0.054823   0.103721
C     0.1234169999    0.8783489990    1.7177210008  -0.099051  -0.211189  -0.243845   0.115045  -0.381186
C     0.1231270002   -0.5814440017    1.2519270010  -0.011145  -0.034488  -0.062457   0.340611   0.307681
H    -0.9016900004    1.2763630023    1.7471550014   0.026697   0.058723   0.079511  -0.054212   0.099375
H     0.5438169990    0.9564449983    2.7310849984   0.030708   0.066481   0.081367  -0.045446   0.075975
H     1.1606319992   -0.9430129990    1.1724400013   0.030238   0.054167   0.095297  -0.072294   0.039088
N    -0.5397649991   -0.8856859987    0.0000000000  -0.152690  -0.269209  -0.525441  -0.470069  -0.936619
H    -0.3475940002   -1.1953539990    2.0362560002   0.026335   0.046278   0.090675  -0.076617   0.016374
H    -1.5100959990   -0.5921159979    0.0000000000   0.092084   0.190304   0.285823   0.163098   0.414564
C     0.1231270002   -0.5814440017   -1.2519270010  -0.011145  -0.034726  -0.062457   0.348396   0.307681
H     1.1606319992   -0.9430129990   -1.1724400013   0.030238   0.054365   0.095297  -0.074406   0.039088
C     0.1234169999    0.8783489990   -1.7177210008  -0.099051  -0.211955  -0.243845   0.117416  -0.381186
H    -0.3475940002   -1.1953539990   -2.0362560002   0.026335   0.046464   0.090675  -0.078858   0.016374
H     0.5438169990    0.9564449983   -2.7310849984   0.030708   0.066635   0.081367  -0.046583   0.075975
H     0.7178540013    1.5235369996   -1.0589970017   0.026512   0.059921   0.079251  -0.055927   0.103721
H    -0.9016900004    1.2763630023   -1.7471550014   0.026697   0.058801   0.079511  -0.055349   0.099375
11
Symbol, X, Y, Z atomic coordinates followed by atomic charges from H, SH, CM5, AVH-B, HLYGAt
C     0.3738619998    0.2437620002    0.0000000000   0.269094   0.414536   0.325293   0.841055   0.434203
C    -1.1361810011    0.2572060002    0.0000000000  -0.061135  -0.185735  -0.161303  -0.148398  -0.114305
H    -1.4443659980    0.8300500001    0.8851610020   0.048294   0.093609   0.104953   0.014444   0.091741
C    -1.7538179987   -1.1360209990    0.0000000000  -0.085827  -0.210687  -0.232692   0.234697  -0.250291
H    -1.4443659980    0.8300500001   -0.8851610020   0.048294   0.093618   0.104953   0.014466   0.091741
F     0.8740459998   -0.3806190001    1.0791219973  -0.110644  -0.147173  -0.136558  -0.267150  -0.163911
F     0.8740970019    1.4894440011    0.0000000000  -0.113295  -0.150320  -0.139194  -0.268689  -0.190662
F     0.8740459998   -0.3806190001   -1.0791219973  -0.110644  -0.147169  -0.136558  -0.267136  -0.163911
H    -1.4526000007   -1.7036799979    0.8896770003   0.037416   0.077942   0.089634  -0.054720   0.086863
H    -1.4526000007   -1.7036799979   -0.8896770003   0.037416   0.077932   0.089634  -0.054768   0.086863
H    -2.8479619982   -1.0577510010    0.0000000000   0.041030   0.083447   0.091829  -0.043802   0.091669
13
Symbol, X, Y, Z atomic coordinates followed by atomic charges from H, SH, CM5, AVH-B, HLYGAt
O     2.5505850013   -1.3379570018    0.0004580000  -0.180007  -0.366086  -0.387534  -0.436357  -0.566844
H    -1.3688370004    2.1456200013   -0.0002170000   0.047399   0.092431   0.103814   0.046900   0.103310
C    -0.5583260009    1.4188199999   -0.0000770000  -0.061834  -0.125560  -0.114052  -0.123807  -0.020918
Cl   -2.4938160025   -0.4899449999   -0.0004750000  -0.067006  -0.074052  -0.068587  -0.132218  -0.081246
H    -0.0623299998   -1.9592749985   -0.0000440000   0.045305   0.086807   0.103831   0.053920   0.134628
C     1.5130569995   -0.4678520001    0.0002800000   0.078818   0.141880   0.092869   0.337538   0.359854
C    -0.8320849987    0.0557399999   -0.0001520000   0.027683   0.064104   0.020664   0.171310  -0.024869
C     0.7769620004    1.8236850013    0.0001820000  -0.029830  -0.060016  -0.084719   0.065769  -0.230353
C     1.8125669987    0.8969170018    0.0003610000  -0.059016  -0.130868  -0.108860  -0.175875  -0.208680
C     0.1836879998   -0.8962689979    0.0000220000  -0.074449  -0.162351  -0.122414  -0.220691  -0.229857
H     2.8562899987    1.2093339983    0.0005630000   0.050679   0.097981   0.109245   0.057673   0.176787
H     1.0111349973    2.8888589986    0.0002450000   0.050029   0.090341   0.105492   0.022969   0.167090
H     2.2394469997   -2.2457800020    0.0003930000   0.172232   0.345396   0.350228   0.332875   0.421099
10
Symbol, X, Y, Z atomic coordinates followed by atomic charges from H, SH, CM5, AVH-B, HLYGAt
H    -2.3206019977   -1.3240400010   -0.6817420012   0.046442   0.094216   0.098196  -0.020550   0.182074
C    -2.2764090013   -0.4879930001    0.0304290000  -0.087440  -0.272446  -0.227557   0.068515  -0.721635
H    -3.0576139974    0.2455210001   -0.1933859998   0.053886   0.109227   0.108205  -0.002600   0.192841
C    -0.9243030020    0.1890730002    0.0150870000   0.163554   0.268064   0.184643   0.409066   0.922285
H    -2.4532030010   -0.9036429977    1.0343729996   0.053453   0.106107   0.105348  -0.007646   0.192564
O    -0.7917890008    1.3821449976    0.0665310001  -0.239322  -0.293661  -0.290763  -0.420633  -0.525242
C     0.2524889997   -0.7765899994   -0.0629830003  -0.017708  -0.131300  -0.110078   0.148341  -0.674690
Cl    1.8391509990   -0.0017640000    0.1120850002  -0.085862  -0.086754  -0.092235  -0.178747  -0.050613
H     0.2222880001   -1.2863379980   -1.0366319989   0.057365   0.104663   0.112989   0.004112   0.243982
H     0.1495910002   -1.5449360000    0.7154890025   0.055634   0.101886   0.111253   0.000144   0.238435
13
Symbol, X, Y, Z atomic coordinates followed by atomic charges from H, SH, CM5, AVH-B, HLYGAt
O    -0.6582429982    2.0417279995   -0.0000230000  -0.179575  -0.343955  -0.384764  -0.411609  -0.527269
H     2.4906330016   -2.1492800026    0.0000340000   0.045176   0.085344   0.100608   0.035439   0.159924
C     1.8292619999   -1.2830629997    0.0000220000  -0.052759  -0.096575  -0.107848  -0.081868  -0.281610
H     0.0164760000   -2.4650839978    0.0000230000   0.051088   0.095848   0.107489   0.031818   0.117715
Cl   -2.1304380024   -0.5604259983   -0.0000070000  -0.048508  -0.065478  -0.051771  -0.099503  -0.062821
C     0.1244770001    0.9477470024   -0.0000090000   0.071453   0.118518   0.088913   0.300718   0.470361
C     0.4498709998   -1.4654150006    0.0000160000  -0.042657  -0.091761  -0.094754   0.028864   0.039997
C     2.3536079975    0.0104680000    0.0000130000  -0.036040  -0.070112  -0.090990   0.029951  -0.067079
C     1.5118149994    1.1162569975   -0.0000020000  -0.053235  -0.121241  -0.103054  -0.142262  -0.313373
C    -0.3883790002   -0.3557420000    0.0000010000  -0.000895  -0.006575  -0.003976  -0.067694  -0.223066
H     1.9062340003    2.1323310016   -0.0000100000   0.052279   0.099863   0.110855   0.055023   0.184772
H     3.4337520001    0.1609119999    0.0000180000   0.047794   0.087336   0.103209   0.024966   0.137862
H    -1.5876379973    1.7856310002   -0.0000270000   0.145878   0.308786   0.326085   0.296157   0.364588
14
Symbol, X, Y, Z atomic coordinates followed by atomic charges from H, SH, CM5, AVH-B, HLYGAt
N     0.1502120002    2.3298570002    0.0000000000  -0.170580  -0.424624  -0.626150  -0.492164  -0.771000
C     0.0622059998    0.9426749976    0.0000000000   0.044639   0.103033   0.094320   0.283535   0.382760
C    -0.0263010000   -1.8738009989    0.0000000000  -0.066674  -0.109542  -0.121860  -0.120005  -0.172461
C     0.0406200000    0.2260820002    1.2065520026  -0.070668  -0.129792  -0.117879  -0.174015  -0.280411
C     0.0406200000    0.2260820002   -1.2065520026  -0.070668  -0.129810  -0.117879  -0.174209  -0.280411
C    -0.0030840000   -1.1646210005   -1.2004919975  -0.041994  -0.069126  -0.096894   0.053132  -0.120471
C    -0.0030840000   -1.1646210005    1.2004919975  -0.041994  -0.069256  -0.096894   0.053156  -0.120471
H     0.0628070002    0.7687269976    2.1541250009   0.036004   0.070390   0.094504   0.033433   0.159099
H     0.0628070002    0.7687269976   -2.1541250009   0.036004   0.070356   0.094504   0.033440   0.159099
H    -0.0196760000   -1.7009620008   -2.1510069989   0.041251   0.076468   0.096591   0.012818   0.132274
H    -0.0196760000   -1.7009620008    2.1510069989   0.041251   0.076654   0.096591   0.012729   0.132274
H    -0.0607800001   -2.9633879995    0.0000000000   0.036790   0.072504   0.092152   0.029993   0.126950
H    -0.1456510001    2.8017749985    0.8419680023   0.113312   0.231396   0.304460   0.224105   0.326383
H    -0.1456510001    2.8017749985   -0.8419680023   0.113312   0.231334   0.304460   0.224038   0.326383
12
Symbol, X, Y, Z atomic coordinates followed by atomic charges from H, SH, CM5, AVH-B, HLYGAt
C    -0.6721830023   -1.2220980013    0.0000000000  -0.042469  -0.079099  -0.097699  -0.015411  -0.120010
C    -1.3944330005   -0.0289270000    0.0000000000  -0.042470  -0.078981  -0.097700  -0.028961  -0.128438
C    -0.7222630000    1.1931820017    0.0000000000  -0.042468  -0.079185  -0.097697  -0.020967  -0.119437
C     0.6721820022    1.2220990015    0.0000000000  -0.042469  -0.078977  -0.097699  -0.020683  -0.120010
C     1.3944330005    0.0289270000    0.0000000000  -0.042470  -0.079167  -0.097700  -0.019982  -0.128437
C     0.7222640002   -1.1931820017    0.0000000000  -0.042468  -0.079022  -0.097697  -0.029498  -0.119438
H    -1.1981279988   -2.1783509983    0.0000000000   0.042469   0.079076   0.097704   0.021397   0.121699
H    -2.4855399990   -0.0516270000   -0.0000010000   0.042467   0.079018   0.097702   0.024029   0.124636
H    -1.2875049978    2.1267400009    0.0000000000   0.042466   0.079113   0.097704   0.022269   0.121550
H     1.1981279988    2.1783509983    0.0000000000   0.042469   0.079075   0.097704   0.021688   0.121699
H     2.4855409992    0.0516270000    0.0000010000   0.042467   0.079087   0.097702   0.022002   0.124636
H     1.2875049978   -2.1267410011    0.0000010000   0.042467   0.079055   0.097704   0.024110   0.121550
3
Symbol, X, Y, Z atomic coordinates followed by atomic charges from H, SH, CM5, AVH-B, HLYGAt
O     0.0000000000    0.1145589999    0.0000000000  -0.295680  -0.596344  -0.634867  -0.596883  -0.696418
H     0.7637309985   -0.4669449999    0.0000000000   0.147840   0.298113   0.317434   0.298472   0.348209
H    -0.7637309985   -0.4669449999    0.0000000000   0.147840   0.298231   0.317434   0.298410   0.348209
9
Symbol, X, Y, Z atomic coordinates followed by atomic charges from H, SH, CM5, AVH-B, HLYGAt
H     2.1979780011   -0.2632270002    0.0000000000   0.060684   0.117956   0.116159   0.080602   0.162730
C     1.1566819983   -0.5685800000    0.0000000000  -0.078798  -0.160207  -0.127532  -0.169194  -0.164747
C     0.0008350000    0.2750649998    0.0000000000  -0.015792  -0.004587  -0.017775  -0.015543  -0.053916
C     0.6647019976   -1.8361879982    0.0000000000   0.021357  -0.003649  -0.001320   0.179919  -0.068410
Cl   -0.0091060000    1.9999589997    0.0000000000  -0.057125  -0.058887  -0.057575  -0.096980  -0.062911
C    -1.0895649974   -0.5385139977    0.0000000000   0.010225  -0.035140  -0.009752   0.142208   0.009254
H    -2.1564250009   -0.3484199998    0.0000000000   0.068107   0.118911   0.130736   0.043699   0.143041
H     1.1398529988   -2.8110330014    0.0000000000   0.065494   0.111152   0.128029   0.033422   0.165869
O    -0.6842700025   -1.8251969982    0.0000000000  -0.074151  -0.085547  -0.160965  -0.198132  -0.130910
12
Symbol, X, Y, Z atomic coordinates followed by atomic charges from H, SH, CM5, AVH-B, HLYGAt
H     0.0000000000    2.9222659983    0.0000000000   0.043952   0.082551   0.099314   0.032928   0.148254
F     0.0000000000   -2.2727709979    0.0000000000  -0.108240  -0.126379  -0.135882  -0.194749  -0.219599
C     0.0000000000   -0.9309179976    0.0000000000   0.092051   0.154691   0.106226   0.319379   0.408441
H     0.0000000000    1.6752369980    2.1531299996   0.047407   0.086421   0.102732   0.021651   0.134434
H     0.0000000000    1.6752369980   -2.1531299996   0.047407   0.086701   0.102732   0.021736   0.134434
C     0.0000000000    1.8319609995    0.0000000000  -0.049476  -0.092789  -0.104639  -0.081220  -0.220385
C     0.0000000000   -0.2613460001   -1.2162339982  -0.055277  -0.129636  -0.105483  -0.162749  -0.294617
C     0.0000000000   -0.2613460001    1.2162339982  -0.055277  -0.129662  -0.105483  -0.162852  -0.294617
C     0.0000000000    1.1326879975    1.2067419984  -0.034389  -0.067245  -0.089307   0.043563  -0.070387
C     0.0000000000    1.1326879975   -1.2067419984  -0.034389  -0.067502  -0.089307   0.043352  -0.070387
H     0.0000000000   -0.8302820020   -2.1458659999   0.053111   0.101418   0.109562   0.059453   0.172214
H     0.0000000000   -0.8302820020    2.1458659999   0.053111   0.101421   0.109562   0.059498   0.172214
5
Symbol, X, Y, Z atomic coordinates followed by atomic charges from H, SH, CM5, AVH-B, HLYGAt
C     0.0000070000   -0.0000040000    0.0000000000  -0.133974  -0.310407  -0.321713   0.229451  -0.628677
H     0.7672799995   -0.7838909992    0.0000000000   0.033498   0.077610   0.080429  -0.057150   0.157198
H    -0.9948070017   -0.4620999999    0.0000000000   0.033494   0.077744   0.080428  -0.057239   0.157073
H     0.1137600000    0.6229960017    0.8956149984   0.033496   0.077316   0.080428  -0.057454   0.157203
H     0.1137589999    0.6229960017   -0.8956149984   0.033496   0.077746   0.080428  -0.057599   0.157203
13
Symbol, X, Y, Z atomic coordinates followed by atomic charges from H, SH, CM5, AVH-B, HLYGAt
C    -1.2707000018    0.4749400002    0.1060710001   0.046073   0.019931  -0.030027   0.453132   0.021812
C    -0.0131890000   -0.3562769997   -0.0634940002  -0.019393  -0.065951  -0.065867   0.247724   0.107731
H     0.0336480000   -1.0981159984    0.7482720017   0.037684   0.069158   0.103444  -0.051849   0.097693
N     1.1547059976    0.4938589999    0.0225820000  -0.148956  -0.259634  -0.522855  -0.467014  -0.715094
H    -0.0793089999   -0.9250660015   -1.0134739977   0.021728   0.039311   0.084572  -0.079955   0.048580
C     2.4107340004   -0.2269940000    0.0468590000  -0.047798  -0.129250  -0.135043   0.410687  -0.064734
H     1.1543499990    1.1772320026   -0.7277530019   0.096582   0.197080   0.289675   0.169083   0.364315
H     3.2469580010    0.4835619999    0.0549380001   0.037055   0.069938   0.097238  -0.065284   0.088641
H     2.5457710021   -0.9143970004   -0.8122050016   0.018961   0.038235   0.077217  -0.100087   0.037185
H     2.4734350016   -0.8257619978    0.9670719985   0.034158   0.066457   0.094840  -0.070884   0.091341
H    -1.3281889991    1.2677080021   -0.6565800006   0.036305   0.056047   0.093987  -0.082008   0.079976
H    -1.3028499992    0.9364510005    1.1025789996   0.039391   0.063253   0.097407  -0.077622   0.091835
F    -2.3894960022   -0.3283320000   -0.0395300000  -0.151784  -0.164567  -0.184589  -0.285915  -0.249280
14
Symbol, X, Y, Z atomic coordinates followed by atomic charges from H, SH, CM5, AVH-B, HLYGAt
N    -1.8676959979    1.2080050015   -0.0557389998  -0.166597  -0.421904  -0.621586  -0.476540  -0.729069
C    -0.6006120015    0.6545639994   -0.0044230000   0.032604   0.063863   0.088383   0.152544   0.182139
C     1.9540569990   -0.5554549976    0.0040340000  -0.059496  -0.099109  -0.114357  -0.048549  -0.110176
C     0.5668380016    1.4298809996   -0.0003310000  -0.065002  -0.121716  -0.112166  -0.110799  -0.218254
C    -0.4345329999   -0.7363859989   -0.0026270000   0.066915   0.102132   0.088596   0.181589   0.298728
C     0.8052149992   -1.3474020001    0.0005130000  -0.055327  -0.120178  -0.105223  -0.097412  -0.314053
C     1.8247770008    0.8320499989    0.0046810000  -0.048780  -0.082151  -0.103604  -0.013031  -0.222544
H     0.4768710001    2.5178400023   -0.0068610000   0.040429   0.077559   0.098844   0.032600   0.168802
F    -1.5529830020   -1.4931770023    0.0026780000  -0.110721  -0.129014  -0.137178  -0.182596  -0.200174
H     0.8570549980   -2.4363089974    0.0030780000   0.052002   0.098792   0.108551   0.050868   0.185780
H     2.7147239979    1.4625690009    0.0072470000   0.042399   0.079722   0.097847   0.024971   0.156854
H     2.9387069997   -1.0223949994    0.0064250000   0.041226   0.079319   0.096654   0.027730   0.135675
H    -1.9640450019    2.1575129998    0.2711409999   0.117869   0.239451   0.309323   0.233351   0.333348
H    -2.6355959973    0.6033619979    0.1968570002   0.112479   0.233236   0.305931   0.225274   0.332943
17
Symbol, X, Y, Z atomic coordinates followed by atomic charges from H, SH, CM5, AVH-B, HLYGAt
H     1.6902700018    2.1116469990   -0.1836009999   0.034985   0.067243   0.089306  -0.043107   0.037876
C     1.1780459988    1.2262399984    0.2167399999  -0.049276  -0.105439  -0.156437   0.173359   0.005226
H     1.2870399992    1.2695769978    1.3136199990   0.027118   0.053462   0.082886  -0.064136   0.045615
C     1.8217249977   -0.0580259999   -0.3053360000  -0.054482  -0.122306  -0.158487   0.002346  -0.159502
C    -0.3057589999    1.2687930006   -0.1517249999  -0.062064  -0.152645  -0.161242  -0.069977  -0.290431
H     1.1613959988   -1.3604110016    1.2799969998   0.015755   0.026921   0.078656  -0.110809   0.033483
H     1.4465939981   -2.1944040017   -0.2625080003   0.037291   0.065052   0.101578  -0.065292   0.079300
H    -0.8823569978   -1.9915270001    0.0475240000   0.102907   0.209252   0.297269   0.186239   0.353041
H     2.8664449993   -0.1316710002    0.0283130000   0.033755   0.065723   0.088341  -0.027079   0.049614
H     1.8233099998   -0.0507500000   -1.4059480024   0.031660   0.062862   0.089489  -0.033894   0.095810
C     1.0411959989   -1.2748019983    0.1787479998  -0.011416  -0.038067  -0.060706   0.393730   0.044980
H    -0.8032109998    2.1416360007    0.2920200000   0.036854   0.072878   0.092535  -0.010512   0.094382
C    -1.0077449982    0.0069290000    0.3140209998   0.106253   0.167523   0.125470   0.611188   0.314594
H    -0.4266080002    1.3247199990   -1.2434829997   0.035674   0.071862   0.095237  -0.016292   0.148480
N    -0.3588820000   -1.1618850009   -0.2110430003  -0.152695  -0.289578  -0.513996  -0.513851  -0.662194
F    -2.3162110017    0.0010350000   -0.1397860000  -0.152193  -0.173631  -0.177580  -0.292505  -0.254469
H    -1.0812779976   -0.0051410000    1.4225389992   0.019864   0.018877   0.087686  -0.119420   0.064194
13
Symbol, X, Y, Z atomic coordinates followed by atomic charges from H, SH, CM5, AVH-B, HLYGAt
O     1.7385499979   -1.3480849986   -0.0000530000  -0.180939  -0.358087  -0.385405  -0.412510  -0.529710
H    -2.8579989976    1.1777400021    0.0000630000   0.044424   0.083916   0.099861   0.030690   0.148448
C    -1.9015539994    0.6553440014    0.0000390000  -0.052139  -0.092165  -0.107024  -0.040510  -0.153953
H    -0.7044110004    2.4747369997    0.0000670000   0.054706   0.103447   0.111160   0.052824   0.184240
F     1.6608879981    1.3701160005    0.0000110000  -0.105491  -0.127250  -0.134041  -0.176684  -0.194833
C     0.5563210014   -0.6956850005   -0.0000230000   0.061091   0.093071   0.080230   0.188936   0.259737
C    -0.7126929995    1.3848819974    0.0000410000  -0.052741  -0.119470  -0.102889  -0.085757  -0.246783
C    -1.8578220009   -0.7384800008    0.0000060000  -0.043803  -0.079761  -0.098687  -0.014955  -0.196812
C    -0.6388000008   -1.4134149998   -0.0000250000  -0.053564  -0.118628  -0.103366  -0.097966  -0.217066
C     0.4883840002    0.6993470021    0.0000100000   0.066474   0.093939   0.084148   0.153623   0.195301
H    -0.5907629976   -2.5023309983   -0.0000510000   0.052117   0.099466   0.110399   0.049855   0.184214
H    -2.7853220006   -1.3118729998    0.0000040000   0.045596   0.084686   0.101048   0.029130   0.157536
H     2.4637769989   -0.7160399977   -0.0000470000   0.164261   0.336830   0.344595   0.323317   0.409679
13
Symbol, X, Y, Z atomic coordinates followed by atomic charges from H, SH, CM5, AVH-B, HLYGAt
O    -3.1770750014    0.0837680000    0.0003170000  -0.182873  -0.367490  -0.390335  -0.433588  -0.572432
Cl    2.7091349975   -0.0105530000   -0.0002710000  -0.076521  -0.082435  -0.078000  -0.128064  -0.089997
C     0.9589369996   -0.0018140000   -0.0000960000   0.010398   0.031070   0.003377   0.023934  -0.139954
H     0.8054669987   -2.1511360017    0.0000130000   0.051096   0.095743   0.107524   0.031155   0.099786
H    -1.6751180019   -2.1424840019    0.0002630000   0.044205   0.081442   0.101647   0.043816   0.190563
C    -1.8233540009    0.0154080000    0.0001840000   0.073494   0.131123   0.087414   0.299628   0.477970
C     0.2636710000   -1.2059650022    0.0000270000  -0.041193  -0.089796  -0.093317   0.035160   0.102304
C     0.2737430002    1.2115030004   -0.0000800000  -0.038585  -0.088334  -0.090610   0.020480   0.031322
C    -1.1158380003    1.2199130022    0.0000600000  -0.051700  -0.119169  -0.101437  -0.134518  -0.344574
C    -1.1290590008   -1.1964000024    0.0001670000  -0.063800  -0.132339  -0.114751  -0.177357  -0.475285
H    -1.6691389979    2.1587260010    0.0000740000   0.052888   0.100734   0.111475   0.054580   0.196966
H     0.8276579974    2.1496919988   -0.0001770000   0.051807   0.096510   0.108250   0.033927   0.111069
H    -3.5650280018   -0.7938609995    0.0004010000   0.170773   0.342927   0.348788   0.330837   0.412264
11
Symbol, X, Y, Z atomic coordinates followed by atomic charges from H, SH, CM5, AVH-B, HLYGAt
C    -0.5184639997    0.0039730000    0.3225469998   0.165660   0.227481   0.151938   0.666382   0.281952
C     0.7031859975   -0.6580929976   -0.2659980002  -0.059279  -0.161365  -0.163901  -0.107577  -0.040554
H     0.7150179978   -1.6958510010    0.0970770000   0.042961   0.083397   0.098508  -0.000371   0.053112
C     1.9984320007    0.0579379999    0.1006990000  -0.085532  -0.204932  -0.233169   0.241316  -0.313184
H     0.5636540005   -0.6945220013   -1.3561700008   0.043435   0.084824   0.099761   0.000840   0.085552
H    -0.4902010000    0.0908260000    1.4203109991   0.044387   0.055314   0.104713  -0.081604   0.089410
F    -1.6404439985   -0.6933269975   -0.0074310000  -0.131512  -0.156633  -0.161468  -0.274840  -0.231423
F    -0.6718209975    1.2626439985   -0.1790619998  -0.128935  -0.153662  -0.159017  -0.273219  -0.206433
H     2.1380590009    0.0970789998    1.1908549978   0.033624   0.070120   0.084703  -0.063211   0.083929
H     2.0031540024    1.0875080009   -0.2798620002   0.036177   0.075648   0.088232  -0.058421   0.095382
H     2.8607240010   -0.4677600000   -0.3281409999   0.039019   0.079814   0.089698  -0.049288   0.102258
13
Symbol, X, Y, Z atomic coordinates followed by atomic charges from H, SH, CM5, AVH-B, HLYGAt
H    -3.0472489981   -0.9304209997    0.0000000000   0.037807   0.079905   0.089649   0.021366   0.198128
C    -2.3445559980   -0.0965359999    0.0000000000  -0.095861  -0.192364  -0.195933  -0.056504  -0.551125
C    -1.0283550006   -0.3023400003    0.0000000000  -0.030798  -0.046889  -0.094816  -0.086301   0.027456
H    -2.7686639994    0.9110870023    0.0000000000   0.036884   0.078168   0.089050   0.016065   0.203731
H    -0.6686730016   -1.3336609984    0.0000000000   0.036426   0.067487   0.092848   0.016417   0.091214
C    -0.0001900000    0.8009789992    0.0000000000  -0.047137  -0.126397  -0.148683   0.269633  -0.055780
C     1.4508560020    0.4028679998    0.0000000000  -0.032025  -0.049713  -0.096046  -0.075252  -0.036111
H    -0.1712530000    1.4552219997    0.8722390025   0.042354   0.080628   0.097211  -0.044309   0.076094
H    -0.1712530000    1.4552219997   -0.8722390025   0.042354   0.080629   0.097211  -0.044228   0.076094
C     1.9697599993   -0.8243789985    0.0000000000  -0.100337  -0.196135  -0.200436  -0.082658  -0.534989
H     2.1436530020    1.2510709987    0.0000000000   0.038286   0.069737   0.093235   0.018924   0.098270
H     3.0506839985   -0.9679859987    0.0000000000   0.037484   0.079925   0.089415   0.027305   0.198080
H     1.3579349973   -1.7278750013    0.0000000000   0.034561   0.075018   0.087302   0.019543   0.208938
14
Symbol, X, Y, Z atomic coordinates followed by atomic charges from H, SH, CM5, AVH-B, HLYGAt
C    -0.7207420018   -0.4060530000   -0.2986880002   0.165500   0.222681   0.153676   0.679991   0.175577
C     0.6571780026    0.2157750002   -0.4373839998  -0.024442  -0.060707  -0.093408  -0.248702   0.285614
H     0.6929080002    0.5877029986   -1.4744690004   0.039008   0.071313   0.098291   0.010923   0.027394
C     1.7388769977   -0.8513319994   -0.2663910000  -0.087915  -0.210699  -0.233865   0.276460  -0.575621
C     0.8459720005    1.3944149978    0.5168750002  -0.091298  -0.214178  -0.236455   0.263129  -0.495762
H    -0.8773040010   -1.2595069989   -0.9762069995   0.043445   0.053666   0.104178  -0.080480   0.098385
F    -1.6947789991    0.5090299999   -0.5623939978  -0.127069  -0.151977  -0.157482  -0.267327  -0.205421
F    -0.9336470015   -0.8524740009    0.9719309989  -0.124700  -0.149131  -0.155051  -0.267785  -0.180818
H     1.6004140021   -1.6867409983   -0.9675389974   0.033112   0.069458   0.084445  -0.064862   0.132815
H     1.7309390008   -1.2564920012    0.7548509974   0.034726   0.073470   0.087401  -0.064732   0.155919
H     2.7299269999   -0.4173360000   -0.4514760001   0.037157   0.077215   0.088594  -0.056158   0.166153
H     0.0626600000    2.1502610019    0.3816219999   0.034379   0.073703   0.087190  -0.059351   0.138674
H     1.8180759980    1.8707430002    0.3340989997   0.034716   0.073254   0.086198  -0.057452   0.129702
H     0.8235049988    1.0575569994    1.5621589983   0.033376   0.071927   0.086289  -0.063660   0.147390
12
Symbol, X, Y, Z atomic coordinates followed by atomic charges from H, SH, CM5, AVH-B, HLYGAt
H     2.1696760004    1.6038649995   -0.0000050000   0.054405   0.104623   0.110932   0.069592   0.199927
F    -2.3409290015   -0.9807629983    0.0000080000  -0.100944  -0.119595  -0.128757  -0.195510  -0.207041
C    -1.1848009988   -0.3066679999    0.0000040000   0.098892   0.168207   0.113630   0.389525   0.468349
H     0.0000000000    2.8572590015    0.0000080000   0.052290   0.093934   0.107725   0.020696   0.145071
F     2.3409290015   -0.9807639985   -0.0000120000  -0.100945  -0.119594  -0.128757  -0.194863  -0.207041
C     1.2138870020    1.0817720004   -0.0000020000  -0.062704  -0.143719  -0.112839  -0.221756  -0.403786
C     0.0000000000   -1.0308539976   -0.0000020000  -0.068337  -0.180236  -0.113292  -0.306770  -0.477593
C    -1.2138870020    1.0817720004    0.0000080000  -0.062704  -0.144027  -0.112839  -0.225210  -0.403786
C     0.0000000000    1.7668859982    0.0000050000  -0.026788  -0.056193  -0.081407   0.110127  -0.007390
C     1.1848009988   -0.3066679999   -0.0000060000   0.098892   0.168204   0.113630   0.386250   0.468349
H     0.0000000000   -2.1195430003   -0.0000050000   0.063533   0.123504   0.121066   0.097496   0.225014
H    -2.1696750003    1.6038659997    0.0000140000   0.054405   0.104886   0.110932   0.070415   0.199927
11
Symbol, X, Y, Z atomic coordinates followed by atomic charges from H, SH, CM5, AVH-B, HLYGAt
C     0.0000030000    1.3814470023    0.0000000000  -0.022354  -0.055761  -0.075168   0.085834   0.336684
C    -1.1970619978    0.6703790002    0.0000010000  -0.046803  -0.102493  -0.096054  -0.144009  -0.615208
C    -1.1411100010   -0.7231910022    0.0000000000   0.019522   0.018418   0.046021   0.238286   0.559776
N    -0.0000030000   -1.4088290019    0.0000000000  -0.161959  -0.200100  -0.360740  -0.369805  -0.721839
C     1.1411070006   -0.7231959977    0.0000000000   0.019522   0.019023   0.046021   0.239248   0.559777
C     1.1970649982    0.6703729993    0.0000000000  -0.046803  -0.102983  -0.096054  -0.144136  -0.615208
H     0.0000060000    2.4727929985    0.0000000000   0.051426   0.091954   0.106580   0.019840   0.065269
H    -2.1596869974    1.1825729987    0.0000010000   0.048314   0.090351   0.103903   0.046669   0.204688
H    -2.0624710000   -1.3122689990    0.0000010000   0.045407   0.075607   0.110801  -0.009103   0.010687
H     2.0624649991   -1.3122780003   -0.0000010000   0.045407   0.075420   0.110801  -0.009425   0.010687
H     2.1596919981    1.1825639974   -0.0000010000   0.048314   0.090554   0.103903   0.046592   0.204688
20
Symbol, X, Y, Z atomic coordinates followed by atomic charges from H, SH, CM5, AVH-B, HLYGAt
N    -1.2255079981   -0.0916400000    0.0000000000  -0.053521  -0.080390  -0.324099  -0.398268   0.164945
C    -0.0009700000    0.5529479994    0.0000000000   0.181393   0.302086   0.349477   0.605538   0.286001
O     0.0246710000    1.7810279998    0.0000000000  -0.324983  -0.396886  -0.376469  -0.528660  -0.530089
N     1.1985689992   -0.1393880000    0.0000000000  -0.051996  -0.078310  -0.322894  -0.396671   0.174319
C    -2.4107619991    0.7513440024    0.0000000000  -0.044135  -0.141470  -0.128277   0.397800  -0.459172
C    -1.5103980004   -1.5115720012    0.0000000000  -0.034917  -0.139757  -0.120104   0.398121  -0.440133
C     2.4131009994    0.6562729984    0.0000000000  -0.044902  -0.141192  -0.128336   0.395699  -0.429205
C     1.5019209996   -1.5539119991    0.0000000000  -0.041932  -0.138145  -0.126425   0.400608  -0.556514
H    -2.1098720010    1.7997730019    0.0000000000   0.039965   0.083380   0.112438  -0.056811   0.178497
H    -3.0234439983    0.5523080019    0.8933199991   0.029543   0.057331   0.090370  -0.082246   0.132588
H    -3.0234439983    0.5523080019   -0.8933199991   0.029543   0.057653   0.090370  -0.082228   0.132588
H    -2.5986989998   -1.6342099999    0.0000000000   0.044138   0.084096   0.107413  -0.059193   0.157489
H    -1.1348340016   -2.0231110001    0.8983139979   0.036310   0.068116   0.097439  -0.067802   0.129987
H    -1.1348340016   -2.0231110001   -0.8983139979   0.036310   0.068085   0.097439  -0.067860   0.129987
H     0.6262020007   -2.1914850020    0.0000000000   0.035707   0.072086   0.101704  -0.083524   0.180678
H     2.1032519994   -1.8091980025    0.8883330013   0.032577   0.062875   0.093607  -0.075667   0.160524
H     2.1032519994   -1.8091980025   -0.8883330013   0.032577   0.062725   0.093607  -0.075675   0.160524
H     2.1608219978    1.7174020022    0.0000000000   0.039962   0.083345   0.112272  -0.056929   0.171546
H     3.0183170014    0.4238819999   -0.8912970023   0.029178   0.057114   0.090209  -0.083037   0.127721
H     3.0183170014    0.4238819999    0.8912970023   0.029178   0.057255   0.090209  -0.083199   0.127721
16
Symbol, X, Y, Z atomic coordinates followed by atomic charges from H, SH, CM5, AVH-B, HLYGAt
Cl   -0.4248470001    2.3177689999    0.0000000000  -0.116315  -0.124575  -0.122643  -0.213051  -0.126880
C    -0.4920600001    0.5068249999    0.0000000000   0.025236   0.023453  -0.037134   0.226254  -0.331834
H    -1.5653369985    0.2688670000    0.0000000000   0.039331   0.066539   0.099193  -0.031744   0.248597
C     0.1643270001   -0.0586360000    1.2498649985  -0.061557  -0.154732  -0.165716  -0.050548  -0.194573
C     0.1643270001   -0.0586360000   -1.2498649985  -0.061557  -0.154590  -0.165716  -0.049138  -0.194573
H    -0.8779200004   -1.9646009978    1.2151709976   0.026045   0.041938   0.088616  -0.100889   0.046437
H     0.7124299984   -2.0156939994    2.0165100013   0.045294   0.076364   0.108640  -0.059827   0.069585
H    -0.8779200004   -1.9646009978   -1.2151709976   0.026045   0.041877   0.088616  -0.100886   0.046437
H    -0.3668070002    0.2726110002    2.1524850014   0.040090   0.078798   0.095328  -0.004744   0.098353
H     1.2011820022    0.3017720000    1.3138540012   0.037255   0.074788   0.095289  -0.012956   0.153929
C     0.1626929998   -1.5859930023    1.1707570008   0.022338  -0.002721  -0.054580   0.450085   0.121308
H    -0.3668070002    0.2726110002   -2.1524850014   0.040090   0.078789   0.095328  -0.005108   0.098353
C     0.1626929998   -1.5859930023   -1.1707570008   0.022338  -0.002764  -0.054580   0.449679   0.121308
H     1.2011820022    0.3017720000   -1.3138540012   0.037255   0.074738   0.095289  -0.013300   0.153929
O     0.7883409985   -2.0495590020    0.0000000000  -0.167198  -0.194275  -0.274574  -0.424031  -0.379959
H     0.7124299984   -2.0156939994   -2.0165100013   0.045294   0.076357   0.108640  -0.059810   0.069585
11
Symbol, X, Y, Z atomic coordinates followed by atomic charges from H, SH, CM5, AVH-B, HLYGAt
H     3.3061329992   -0.1774699998   -0.0000050000   0.049265   0.082215   0.114698  -0.003115   0.038311
H     2.1977339975    2.0661630006    0.0000130000   0.053811   0.099082   0.109469   0.050780   0.219612
C     1.6004390004    1.1542960017    0.0000070000  -0.038801  -0.095166  -0.087855  -0.122579  -0.640733
H    -0.3177300002    2.1697639973    0.0000170000   0.058333   0.106037   0.114496   0.034783   0.043470
Cl   -2.2338959995    0.0083840000    0.0000020000  -0.055792  -0.061649  -0.057113  -0.102340  -0.036260
C     0.2078269998   -1.1913590021   -0.0000110000   0.018034  -0.001528   0.048308   0.232368   0.640620
C     0.2105120000    1.2163159995    0.0000090000  -0.024889  -0.077236  -0.074763   0.065902   0.433779
C     2.2163259985   -0.0962230001   -0.0000020000   0.020724   0.014698   0.047336   0.231203   0.506987
N     1.5347439993   -1.2392709978   -0.0000120000  -0.151180  -0.186225  -0.350378  -0.358973  -0.719182
C    -0.4912200000    0.0165150000    0.0000000000   0.018848   0.031180   0.018062  -0.030217  -0.481921
H    -0.3328659999   -2.1408189987   -0.0000170000   0.051643   0.088589   0.117749   0.002182  -0.004684
29
Symbol, X, Y, Z atomic coordinates followed by atomic charges from H, SH, CM5, AVH-B, HLYGAt
C    -1.6448860020    0.3539039998    1.1901460009   0.040412   0.027859   0.007673   0.282880  -0.020690
O    -2.7736430013    0.9020980013    1.8273869980  -0.188161  -0.375715  -0.414156  -0.467647  -0.671098
C    -2.0202640003   -0.8704400011    0.3354790002   0.041020   0.034440   0.008300   0.133844   0.224296
C    -3.4633089974   -0.9108180003   -0.1497150001   0.009099  -0.033212  -0.066538   0.410097   0.138007
O    -3.6840950015   -2.0396489998   -0.9552580009  -0.229344  -0.391531  -0.451061  -0.497063  -0.634393
O    -1.1508920005   -0.8121720021   -0.8027299989  -0.147920  -0.189730  -0.240854  -0.375722  -0.554098
C    -0.3602359999    0.3378990001   -0.8071379975   0.097756   0.107410   0.127365   0.530364   0.649416
C    -1.0175309982    1.3180880010    0.1651179999   0.030467   0.013472   0.003376   0.117055  -0.044237
O    -2.0076639999    2.0259519991   -0.5210099999  -0.209891  -0.366619  -0.426219  -0.438453  -0.576820
N     1.0174380006    0.0036310000   -0.3922609998  -0.020592  -0.073188  -0.262821  -0.378223  -0.664299
C     1.3537509995   -1.1989979979    0.1051000002   0.102669   0.127031   0.219005   0.473397   0.627915
N     2.5543279987   -1.5247150010    0.4665240002  -0.213792  -0.299322  -0.390923  -0.514116  -0.894513
C     3.4925589978   -0.5381380015    0.2879640001   0.152778   0.284736   0.372257   0.583417   1.250637
N     4.7393779994   -0.8651219977    0.6720980006  -0.128424  -0.432421  -0.577531  -0.523452  -1.106334
N     3.2779349977    0.6564440020   -0.2127840002  -0.227457  -0.331254  -0.394565  -0.548610  -0.922087
C     2.0235669974    1.0028839975   -0.5945259979   0.177766   0.315057   0.351604   0.672543   0.947833
O     1.6891899987    2.0642469981   -1.0755899987  -0.303792  -0.370908  -0.342124  -0.533573  -0.584613
H    -0.8836140001    0.0649130000    1.9306579998   0.036319   0.053982   0.105703  -0.060089   0.078595
H    -2.5110229986    1.3747560010    2.6188710023   0.169235   0.336737   0.346954   0.323737   0.474973
H    -1.8099480001   -1.8122910010    0.8647800010   0.035612   0.056176   0.105566  -0.033582   0.062753
H    -4.1338290021   -0.9885980014    0.7142370010   0.041825   0.074764   0.109094  -0.058668   0.119302
H    -3.6965780009    0.0217110000   -0.6872640025   0.028139   0.044960   0.097113  -0.093010   0.048675
H    -3.1037210015   -1.9869919990   -1.7194649995   0.147376   0.307612   0.328578   0.286276   0.417590
H    -0.3077999999    0.7642270016   -1.8143579989   0.054358   0.086688   0.139550  -0.047418   0.069276
H    -0.2767770002    1.9974319986    0.6112340010   0.033345   0.054890   0.107584  -0.035119   0.119425
H    -2.7251150010    2.2096950006    0.0950760000   0.139458   0.298268   0.325862   0.280206   0.430894
H     0.5475660026   -1.9291459977    0.1865139998   0.059465   0.093942   0.144650  -0.023536   0.082107
H     5.4859999896   -0.1995260001    0.5498940013   0.138561   0.276938   0.335324   0.271228   0.465503
H     4.9248659997   -1.7871469976    1.0324790003   0.133705   0.268927   0.331277   0.263228   0.465985
15
Symbol, X, Y, Z atomic coordinates followed by atomic charges from H, SH, CM5, AVH-B, HLYGAt
H     0.7701639994    2.0387840014    0.0847269998   0.106897   0.216103   0.300941   0.196453   0.357251
N     0.3031549998    1.1832949975   -0.1968139997  -0.152853  -0.291128  -0.512732  -0.495451  -0.610393
H     0.7316170010   -2.1078509992    0.3798240002   0.047059   0.081762   0.111464  -0.037926   0.138277
C    -1.1107909991    1.2016110009    0.1584160001  -0.017014  -0.063626  -0.063658   0.279492  -0.053029
C     0.9893139993    0.0401060000    0.3323570002   0.100645   0.146301   0.123130   0.504111   0.247368
H    -1.7274109975   -0.1647119998   -1.3955990001   0.030515   0.050948   0.095629  -0.080129   0.109645
H    -2.7949139990   -0.1573280001    0.0440690000   0.045244   0.076908   0.108844  -0.048585   0.104530
H     0.3853279999   -1.3262020022   -1.1978440000   0.032590   0.056601   0.098995  -0.069107   0.151528
H    -1.5937970009    2.0490030008   -0.3459910002   0.042654   0.075600   0.106965  -0.043809   0.102005
H    -1.2739329994    1.3151750021    1.2484970014   0.022473   0.039640   0.087056  -0.085529   0.082624
C    -1.7528080005   -0.0996230002   -0.2923610003   0.017590  -0.018060  -0.054223   0.351573  -0.046363
F     2.2724670015    0.0229050000   -0.1782959999  -0.145677  -0.165773  -0.171071  -0.275713  -0.241241
C     0.2741959998   -1.2359929990   -0.1019090002   0.010052  -0.045501  -0.056188   0.294899  -0.157082
H     1.0987799994    0.0645649999    1.4347090008   0.026121   0.030557   0.095125  -0.096687   0.100156
O    -1.0793320013   -1.2042510025    0.2697260002  -0.166309  -0.190345  -0.270293  -0.393604  -0.285277
14
Symbol, X, Y, Z atomic coordinates followed by atomic charges from H, SH, CM5, AVH-B, HLYGAt
N    -3.2155920008    0.0000020000   -0.1397460000  -0.167139  -0.425428  -0.623382  -0.492920  -0.762999
C    -1.8308179979    0.0000010000   -0.0579999999   0.046001   0.102928   0.096300   0.271358   0.409393
C     0.9711649990    0.0000000000    0.0183460000   0.004629   0.024134  -0.002369   0.017930  -0.083170
C    -1.1116299990    1.2048320020   -0.0396460000  -0.063130  -0.122979  -0.110205  -0.153038  -0.361948
C    -1.1116309991   -1.2048310019   -0.0396430000  -0.063130  -0.122850  -0.110206  -0.151524  -0.361949
C     0.2779400000   -1.2064469979   -0.0012720000  -0.043052  -0.090534  -0.095023   0.024111   0.011307
C     0.2779410001    1.2064469979   -0.0012740000  -0.043052  -0.090356  -0.095023   0.025575   0.011306
H    -1.6495110002    2.1545250007   -0.0590509998   0.041424   0.078966   0.099996   0.038265   0.184307
H    -1.6495120004   -2.1545230004   -0.0590439998   0.041424   0.078980   0.099996   0.037921   0.184306
H     0.8235960014   -2.1495950006    0.0131570000   0.049015   0.092329   0.105444   0.029934   0.109017
H     0.8235970016    2.1495950006    0.0131540000   0.049015   0.092327   0.105444   0.029637   0.109017
Cl    2.7223000005   -0.0000010000    0.0683139997  -0.084406  -0.089973  -0.085825  -0.135600  -0.107215
H    -3.6917320024    0.8433009997    0.1442279997   0.116193   0.236223   0.307437   0.229163   0.329314
H    -3.6917310022   -0.8433060004    0.1442020002   0.116193   0.236217   0.307437   0.229174   0.329315
9
Symbol, X, Y, Z atomic coordinates followed by atomic charges from H, SH, CM5, AVH-B, HLYGAt
C    -1.2816299984    0.2215620002   -0.0000020000  -0.100823  -0.195420  -0.200800  -0.078444  -0.596977
C    -0.1318680002   -0.4521920001    0.0000020000  -0.032464  -0.043571  -0.098794  -0.087632   0.092724
C     1.2339799983    0.1633160001    0.0000000000  -0.086944  -0.213657  -0.231210   0.276410  -0.343782
H    -1.3017849983    1.3145170020   -0.0000070000   0.034669   0.074817   0.086798   0.018133   0.230065
H    -2.2426770021   -0.2949439999    0.0000000000   0.036075   0.077378   0.087795   0.024483   0.200597
H    -0.1668039997   -1.5471939991    0.0000070000   0.036889   0.067529   0.091419   0.018324   0.086946
H     1.1815869987    1.2603399979   -0.0000070000   0.036971   0.077124   0.088299  -0.058275   0.116111
H     1.8078979993   -0.1562040002    0.8834579986   0.037813   0.077834   0.088253  -0.056509   0.107158
H     1.8079019999   -0.1562170000   -0.8834499975   0.037813   0.077965   0.088253  -0.056492   0.107158
17
Symbol, X, Y, Z atomic coordinates followed by atomic charges from H, SH, CM5, AVH-B, HLYGAt
C    -0.4718559999   -1.4593930010    0.0000140000  -0.029757  -0.056916  -0.080612   0.148529  -0.113893
C    -1.8519349997   -1.5229930001    0.0000210000  -0.068584  -0.118907  -0.123611  -0.167183  -0.260780
C    -2.5815689990   -0.3247309999    0.0000240000  -0.026601  -0.051494  -0.081427   0.113804  -0.033548
C    -1.9409769978    0.8985819997    0.0000180000  -0.070239  -0.136685  -0.116946  -0.226044  -0.411656
C    -0.5291009999    0.9854379985    0.0000110000   0.068490   0.133696   0.127962   0.407626   0.660603
N     0.0722619999    2.2019270019   -0.0000010000  -0.145606  -0.403746  -0.608459  -0.492376  -1.123698
C     0.2120310000   -0.2285580002    0.0000090000  -0.050868  -0.103023  -0.047657  -0.409584  -0.228616
C     1.6812939974   -0.1983720001    0.0000070000   0.197098   0.317955   0.257096   0.730140   0.676148
O     2.2547319977   -1.4136090014    0.0000030000  -0.163677  -0.363895  -0.369233  -0.469072  -0.577459
O     2.3713420012    0.8052559999    0.0000080000  -0.278372  -0.364092  -0.340425  -0.523576  -0.592580
H     0.1164569998   -2.3753819993    0.0000120000   0.043370   0.082432   0.105870   0.001654   0.165032
H    -2.3625810015   -2.4852769980    0.0000240000   0.039930   0.078477   0.095433   0.039425   0.150808
H    -3.6726720023   -0.3525290000    0.0000300000   0.047051   0.084732   0.102384   0.011905   0.136860
H    -2.5223759982    1.8223509984    0.0000190000   0.038851   0.075011   0.097821   0.042960   0.173441
H    -0.4811220002    3.0414829986    0.0000310000   0.122571   0.248158   0.315783   0.241092   0.450160
H     1.0827039979    2.2540099989    0.0000140000   0.099586   0.226439   0.306786   0.217455   0.499973
H     3.2087690015   -1.2731269990    0.0000020000   0.176749   0.351850   0.359281   0.333235   0.429205
5
Symbol, X, Y, Z atomic coordinates followed by atomic charges from H, SH, CM5, AVH-B, HLYGAt
O    -1.1269000001   -0.2674150002   -0.0000180000  -0.273085  -0.337775  -0.331120  -0.516948  -0.502043
C    -0.1306279999    0.3969669997    0.0000600000   0.187885   0.253473   0.206147   0.700857   0.547553
O     1.1106900003   -0.0911290000    0.0000330000  -0.164630  -0.364436  -0.373826  -0.479647  -0.550476
H    -0.1066159997    1.5020730004    0.0001680000   0.066594   0.088830   0.136644  -0.044287   0.071629
H     1.0576790012   -1.0575229997   -0.0000600000   0.183236   0.359908   0.362152   0.340025   0.433337
9
Symbol, X, Y, Z atomic coordinates followed by atomic charges from H, SH, CM5, AVH-B, HLYGAt
C    -1.3696269985   -0.3020259997   -0.0000030000  -0.092383  -0.269485  -0.227445   0.061198  -0.631023
C     0.0759040001    0.1510960003   -0.0000150000   0.166513   0.302009   0.257084   0.573144   0.907975
O     0.4035310001    1.3208459985    0.0000090000  -0.320093  -0.386680  -0.365075  -0.540626  -0.602455
N     0.9974420025   -0.8550390022   -0.0000060000  -0.146500  -0.441063  -0.605777  -0.541536  -1.049592
H    -1.5826230008   -0.9130689985   -0.8888750005   0.043365   0.088345   0.097178  -0.022887   0.169394
H    -1.5827670005   -0.9123250018    0.8893460000   0.043377   0.088452   0.097188  -0.022836   0.169416
H    -2.0178550004    0.5788949974   -0.0004090000   0.050816   0.104734   0.105836  -0.004298   0.174361
H     0.7377120006   -1.8282050002   -0.0001160000   0.124288   0.251288   0.316483   0.240199   0.422973
H     1.9770619993   -0.6130819990   -0.0000170000   0.130613   0.262396   0.324531   0.257638   0.438951
10
Symbol, X, Y, Z atomic coordinates followed by atomic charges from H, SH, CM5, AVH-B, HLYGAt
H     0.7560989984    2.1519959993    0.0000240000   0.063985   0.121996   0.120923   0.097240   0.273181
F     2.2105289997   -0.0344960000    0.0000220000  -0.087160  -0.112017  -0.108115  -0.200705  -0.251400
C     0.8851779992   -0.0198600000    0.0000370000   0.161815   0.264963   0.266118   0.556154   0.996011
H    -1.7803750005    2.0143110001    0.0000210000   0.059766   0.096887   0.124998   0.000462   0.040803
H    -1.5640529977   -2.1124029974    0.0000210000   0.059048   0.089882   0.134691  -0.015423   0.023674
N    -1.8061200009   -0.0583840000    0.0000250000  -0.168176  -0.222049  -0.361147  -0.430561  -0.806520
N     0.2821140000   -1.1793120024    0.0000310000  -0.166919  -0.240079  -0.354625  -0.456597  -0.810297
C     0.2215330002    1.2041959998    0.0000280000  -0.060147  -0.169693  -0.098092  -0.325028  -0.859615
C    -1.1633490014    1.1122590002    0.0000250000   0.045445   0.047887   0.074187   0.328315   0.637817
C    -1.0518229992   -1.1469860006    0.0000280000   0.092338   0.122219   0.201073   0.446138   0.756346
11
Symbol, X, Y, Z atomic coordinates followed by atomic charges from H, SH, CM5, AVH-B, HLYGAt
C     0.0000000000    0.5822870022    0.0000000000  -0.047944  -0.089365  -0.162185   0.052077   0.362963
C     1.2729029983   -0.2588059998    0.0000000000  -0.090183  -0.196241  -0.238873   0.214962  -0.395056
C    -1.2729019982   -0.2588069999    0.0000000000  -0.090183  -0.196288  -0.238872   0.204625  -0.395057
H     0.0000000000    1.2456070006    0.8791040026   0.027275   0.053249   0.081044  -0.046119  -0.050083
H     0.0000000000    1.2456070006   -0.8791040026   0.027275   0.053277   0.081044  -0.046347  -0.050083
H    -1.3166879992   -0.9080540019   -0.8873420006   0.028372   0.061567   0.079220  -0.064020   0.091921
H    -1.3166879992   -0.9080540019    0.8873420006   0.028372   0.061558   0.079220  -0.064076   0.091921
H    -2.1729069977    0.3716800000    0.0000000000   0.030126   0.064577   0.080482  -0.057685   0.079816
H     2.1729069977    0.3716810001    0.0000000000   0.030126   0.064456   0.080482  -0.060375   0.079816
H     1.3166889993   -0.9080530018    0.8873420006   0.028372   0.061637   0.079220  -0.066551   0.091921
H     1.3166889993   -0.9080530018   -0.8873420006   0.028372   0.061555   0.079220  -0.066509   0.091921
8
Symbol, X, Y, Z atomic coordinates followed by atomic charges from H, SH, CM5, AVH-B, HLYGAt
C    -0.0249690000    0.0000480000    0.0000000000   0.270821   0.423120   0.325286   0.803086   0.590868
C     1.4778229996    0.0000600000    0.0000000000  -0.095785  -0.307985  -0.232477  -0.034865  -0.629925
H     1.8375039985    0.5174290000    0.8962059993   0.055243   0.112330   0.108346   0.009520   0.203787
H     1.8375039985    0.5174290000   -0.8962059993   0.055243   0.111942   0.108346   0.009565   0.203787
H     1.8373499973   -1.0348250016    0.0000000000   0.055246   0.112333   0.108347   0.009552   0.204141
F    -0.5238279998    1.2465910003    0.0000000000  -0.113596  -0.150595  -0.139287  -0.265626  -0.190649
F    -0.5235700000   -0.6233099996    1.0795769998  -0.113586  -0.150537  -0.139280  -0.265625  -0.191004
F    -0.5235700000   -0.6233099996   -1.0795769998  -0.113586  -0.150607  -0.139280  -0.265607  -0.191004
16
Symbol, X, Y, Z atomic coordinates followed by atomic charges from H, SH, CM5, AVH-B, HLYGAt
H    -0.7469180013    2.1820039985   -0.2505179998   0.038684   0.075410   0.093812  -0.021992   0.081213
C    -0.2870290001    1.2763019988    0.1670159998  -0.058831  -0.142552  -0.162800   0.059106  -0.157582
H    -0.4100480000    1.3158039980    1.2613460009   0.033703   0.067218   0.090713  -0.037550   0.100929
C     1.1989669987    1.1866470018   -0.1916530000  -0.054294  -0.129566  -0.160866   0.006289  -0.169198
C    -1.0037679986    0.0399530000   -0.3433680000   0.069226   0.085221   0.028139   0.267291   0.158990
H     1.7739749990   -0.2017689998    1.3711989988   0.026424   0.042878   0.089007  -0.096529   0.070946
H     2.8071819990   -0.2779059998   -0.0809739999   0.042708   0.072012   0.106048  -0.061244   0.091865
H    -0.3938230002   -1.2881840010    1.2390380011   0.029449   0.050041   0.093041  -0.079951   0.115888
H     1.7569859975    2.0113550003    0.2735920001   0.038984   0.074919   0.093469  -0.018042   0.071329
H     1.3303200010    1.2766599977   -1.2808850015   0.033723   0.065910   0.090683  -0.031310   0.093556
C     1.7743689979   -0.1493439998    0.2646170000   0.019994  -0.005516  -0.057337   0.427499   0.019417
F    -2.3148260020    0.0234740000    0.1180849998  -0.149375  -0.165411  -0.180453  -0.255032  -0.269471
C    -0.3061400001   -1.2300039988    0.1366809998   0.012629  -0.034479  -0.059425   0.344386  -0.116947
H    -1.0466510010    0.0418750000   -1.4438279994   0.037705   0.056830   0.099195  -0.051027   0.108720
O     1.0410919997   -1.2342389988   -0.2604209999  -0.166034  -0.191141  -0.272584  -0.407068  -0.332785
H    -0.7792049974   -2.1193370022   -0.2962569997   0.045295   0.078216   0.109355  -0.044835   0.133129
7
Symbol, X, Y, Z atomic coordinates followed by atomic charges from H, SH, CM5, AVH-B, HLYGAt
F    -1.1602249984   -0.3335530000    0.0000000000  -0.191200  -0.210379  -0.217430  -0.332890  -0.325568
C    -0.0417370000    0.5272780002    0.0000000000   0.077081   0.075709   0.058158   0.597997   0.391774
H    -0.1397400002    1.1456629994   -0.9015560021   0.043044   0.064361   0.108609  -0.066816   0.057185
N     1.1864160001   -0.1515089998    0.0000000000  -0.192367  -0.444185  -0.656858  -0.558775  -0.988190
H    -0.1397400002    1.1456639996    0.9015560021   0.043044   0.064361   0.108609  -0.066777   0.057185
H     1.3512360001   -0.7044369989   -0.8323890004   0.110203   0.225092   0.299456   0.213702   0.403806
H     1.3512360001   -0.7044359988    0.8323900006   0.110203   0.225048   0.299456   0.213568   0.403806
6
Symbol, X, Y, Z atomic coordinates followed by atomic charges from H, SH, CM5, AVH-B, HLYGAt
C     0.2809659998    0.0000050000   -0.0000040000   0.069093   0.137667   0.177386   0.137839   0.461700
C    -1.1778899974    0.0000030000   -0.0000020000  -0.044416  -0.241158  -0.182118   0.246348  -0.588024
H    -1.5527240015    0.8938969981   -0.5144090000   0.068434   0.128235   0.120187  -0.011960   0.205734
H    -1.5527230014   -0.8924389984   -0.5169260002   0.068435   0.128064   0.120187  -0.012140   0.205735
H    -1.5527089993   -0.0014500000    1.0313429997   0.068436   0.128238   0.120187  -0.012033   0.205804
N     1.4350889976   -0.0000080000    0.0000100000  -0.229983  -0.281047  -0.355828  -0.348055  -0.490948
18
Symbol, X, Y, Z atomic coordinates followed by atomic charges from H, SH, CM5, AVH-B, HLYGAt
Cl   -0.4824200000    2.3220100007    0.0000000000  -0.123210  -0.131840  -0.129770  -0.219389  -0.127716
C    -0.4995439999    0.5058920002    0.0000000000   0.027766   0.025779  -0.035617   0.180141  -0.374181
H    -1.5665819991    0.2417259999    0.0000000000   0.038889   0.065539   0.098484  -0.026811   0.261126
C     0.1633970002   -0.0257920000    1.2630340021  -0.055920  -0.129970  -0.162619   0.076156  -0.209817
C     0.1633970002   -0.0257920000   -1.2630340021  -0.055920  -0.129793  -0.162619   0.074496  -0.209817
H    -0.8829240006   -1.9185080011    1.3227720025   0.028279   0.055379   0.083595  -0.053985   0.039325
H     0.6695870018   -1.9271359974    2.1609339982   0.034390   0.066038   0.088612  -0.038388   0.016415
H     0.7597700012   -3.2184259987    0.0000000000   0.032068   0.062138   0.086232  -0.039035   0.031296
H    -0.3523060000    0.3653380000    2.1500460025   0.034432   0.067995   0.089578  -0.028888   0.108728
H     1.2003959994    0.3437710002    1.3002209992   0.031579   0.063450   0.087971  -0.038941   0.138846
C     0.1575809998   -1.5578740018    1.2613979978  -0.049024  -0.106858  -0.158300   0.116576   0.040879
H    -0.3523060000    0.3653380000   -2.1500460025   0.034432   0.067980   0.089578  -0.028424   0.108728
C     0.1575809998   -1.5578740018   -1.2613979978  -0.049024  -0.106721  -0.158300   0.116881   0.040879
H     1.2003959994    0.3437710002   -1.3002209992   0.031579   0.063348   0.087971  -0.038514   0.138846
C     0.8138229979   -2.1205300005    0.0000000000  -0.051620  -0.110052  -0.160957   0.090343  -0.126798
H     0.6695870018   -1.9271359974   -2.1609339982   0.034390   0.065979   0.088612  -0.038326   0.016415
H    -0.8829240006   -1.9185080011   -1.3227720025   0.028279   0.055275   0.083595  -0.053999   0.039325
H     1.8844169976   -1.8561969982    0.0000000000   0.028633   0.056331   0.083974  -0.049896   0.067523
7
Symbol, X, Y, Z atomic coordinates followed by atomic charges from H, SH, CM5, AVH-B, HLYGAt
H     2.0217939998   -0.0973190001    0.0000000000   0.139343   0.279325   0.334432   0.272179   0.429049
N     1.1448569990   -0.5912469989    0.0000000000  -0.144042  -0.462239  -0.600539  -0.577161  -0.954008
C    -0.0036680000    0.1260159998    0.0000000000   0.214510   0.371536   0.340111   0.795643   0.850385
H     1.1332709974   -1.5981559977    0.0000000000   0.133791   0.270103   0.329908   0.262357   0.431524
O    -0.0800249999    1.3320619995    0.0000000000  -0.334169  -0.417378  -0.379280  -0.593414  -0.594826
O    -1.0823920003   -0.6844919976    0.0000000000  -0.188699  -0.400184  -0.386426  -0.502228  -0.560875
H    -1.8600269977   -0.1156689999    0.0000000000   0.179265   0.358836   0.361793   0.342624   0.398751
13
Symbol, X, Y, Z atomic coordinates followed by atomic charges from H, SH, CM5, AVH-B, HLYGAt
C    -0.7086739991    0.6609189997    0.1060769999  -0.008365  -0.077847  -0.104752   0.230697  -0.584605
C     0.4747460001   -0.2740460002   -0.0706470003  -0.016801  -0.053962  -0.065225   0.319114   0.333512
H     0.4672870002   -1.0179649976    0.7401240009   0.036691   0.067320   0.102368  -0.058521   0.068659
N     1.7066330025    0.4815129998    0.0139410000  -0.148831  -0.260532  -0.522790  -0.472813  -0.684991
H     0.3659459998   -0.8377920003   -1.0189189983   0.020219   0.036446   0.082861  -0.087492   0.014272
C     2.9003559979   -0.3387250002    0.0523180000  -0.047432  -0.130142  -0.134797   0.409308  -0.142542
H     1.7647600023    1.1559189988   -0.7422040007   0.096924   0.197719   0.289983   0.170016   0.362550
H     3.7907390000    0.3025199999    0.0586099999   0.037623   0.071012   0.097828  -0.064258   0.106544
H     2.9839779990   -1.0428220017   -0.7994580010   0.019588   0.039424   0.077849  -0.099435   0.050174
H     2.9095709999   -0.9311660018    0.9786099985   0.034660   0.067201   0.095343  -0.070251   0.106976
H    -0.7270270025    1.4369189983   -0.6694629997   0.043487   0.077459   0.100579  -0.029409   0.235807
H    -0.6850990009    1.1399010004    1.0905579984   0.046099   0.083957   0.103691  -0.025459   0.248680
Cl   -2.2664830021   -0.2307300001   -0.0241810000  -0.113861  -0.118054  -0.122935  -0.221495  -0.115037
17
Symbol, X, Y, Z atomic coordinates followed by atomic charges from H, SH, CM5, AVH-B, HLYGAt
C    -0.0000010000    0.0000190000    0.0000000000   0.023291   0.075139  -0.019933  -0.329980   0.801077
C    -0.5114389998    1.4463809990    0.0000000000  -0.090932  -0.204808  -0.235968   0.310711  -0.640242
C     1.5341330007    0.0000360000    0.0000000000  -0.090935  -0.204080  -0.235972   0.308205  -0.639196
C    -0.5113400002   -0.7231969978    1.2526129999  -0.090931  -0.205355  -0.235970   0.297732  -0.642187
C    -0.5113400002   -0.7231969978   -1.2526129999  -0.090931  -0.204845  -0.235970   0.302432  -0.642187
H    -1.6108309984    1.4763670003    0.0000000000   0.028374   0.062004   0.080316  -0.075478   0.146704
H    -0.1592150000    1.9897359998    0.8889689983   0.028365   0.062120   0.080318  -0.075504   0.146713
H    -0.1592150000    1.9897359998   -0.8889689983   0.028365   0.061924   0.080318  -0.075572   0.146713
H     1.9289530014    0.5132680002    0.8889709986   0.028369   0.061831   0.080317  -0.074950   0.146422
H     1.9289430000   -1.0264570007    0.0000000000   0.028372   0.061682   0.080319  -0.074837   0.146518
H     1.9289530014    0.5132680002   -0.8889709986   0.028369   0.061870   0.080317  -0.075003   0.146422
H    -1.6107309998   -0.7380520023    1.2788139977   0.028372   0.062163   0.080318  -0.072407   0.147237
H    -0.1592340001   -1.7647880010    1.2785130017   0.028367   0.062241   0.080318  -0.072309   0.147197
H    -0.1588430001   -0.2251379999    2.1676209989   0.028368   0.062114   0.080318  -0.072462   0.147187
H    -1.6107309998   -0.7380520023   -1.2788139977   0.028372   0.061959   0.080318  -0.073506   0.147237
H    -0.1588430001   -0.2251379999   -2.1676209989   0.028368   0.062010   0.080318  -0.073576   0.147187
H    -0.1592340001   -1.7647880010   -1.2785130017   0.028367   0.062022   0.080318  -0.073505   0.147197
15
Symbol, X, Y, Z atomic coordinates followed by atomic charges from H, SH, CM5, AVH-B, HLYGAt
H    -1.6904669986    1.4438239989    0.8895790020   0.042490   0.087648   0.096356  -0.025188   0.155826
C    -1.7729139987    0.8037350017    0.0000080000  -0.092267  -0.264435  -0.228336   0.080499  -0.576264
H    -2.7521740014    0.3179230001    0.0000070000   0.048383   0.100655   0.104419  -0.009761   0.173448
C    -0.7247709984   -0.2934490002    0.0000110000   0.162377   0.277996   0.257238   0.493929   0.608737
H    -1.6904649983    1.4438209984   -0.8895650000   0.042490   0.087683   0.096356  -0.025181   0.155827
O    -1.0586079982   -1.4677890007    0.0000100000  -0.315183  -0.379762  -0.364841  -0.515931  -0.574004
N     0.5906440015    0.0820600001    0.0000110000  -0.037772  -0.059483  -0.319949  -0.375561   0.071870
C     1.6219039998   -0.9328159975    0.0000100000  -0.040652  -0.145793  -0.123308   0.390019  -0.519145
C     1.0696600019    1.4440580010    0.0000080000  -0.036203  -0.141548  -0.120002   0.392883  -0.466160
H     1.1517770018   -1.9195849984    0.0000130000   0.043627   0.087926   0.113386  -0.049982   0.190549
H     2.2597389983   -0.8319140004    0.8920900008   0.033629   0.064730   0.094511  -0.075517   0.161691
H     2.2597349978   -0.8319170008   -0.8920719982   0.033629   0.064723   0.094511  -0.075512   0.161691
H     0.2475120002    2.1626129981    0.0000110000   0.043175   0.082800   0.106086  -0.063890   0.146780
H     1.6908299983    1.6346029987   -0.8901220013   0.036139   0.068446   0.096785  -0.070399   0.154577
H     1.6908369993    1.6346029987    0.8901329976   0.036139   0.068413   0.096785  -0.070409   0.154577
10
Symbol, X, Y, Z atomic coordinates followed by atomic charges from H, SH, CM5, AVH-B, HLYGAt
C    -0.6195789986   -1.1825269974    0.0000020000   0.040191   0.041859   0.069500   0.302581   0.705758
N     0.7113930016   -1.1871170011    0.0000240000  -0.163959  -0.214518  -0.357039  -0.415595  -0.834609
C     1.3106679998   -0.0000170000    0.0000350000   0.081095   0.111288   0.189477   0.427611   0.834584
N     0.7114230007    1.1870989985    0.0000240000  -0.163959  -0.214435  -0.357039  -0.415698  -0.834609
C    -0.6195479994    1.1825429997    0.0000020000   0.040191   0.041724   0.069500   0.302978   0.705758
C    -1.3533570006    0.0000170000   -0.0000100000  -0.050709  -0.126859  -0.093455  -0.238164  -0.836558
H    -1.1167809994   -2.1567170009   -0.0000070000   0.054737   0.088870   0.119914  -0.004760   0.009854
H     2.4043140013   -0.0000310000    0.0000520000   0.052703   0.080016   0.128356  -0.023108  -0.008639
H    -1.1167250018    2.1567459998   -0.0000070000   0.054737   0.088951   0.119914  -0.004931   0.009854
H    -2.4427469991    0.0000320000   -0.0000290000   0.054974   0.103105   0.110892   0.069086   0.248607
10
Symbol, X, Y, Z atomic coordinates followed by atomic charges from H, SH, CM5, AVH-B, HLYGAt
C     1.2867079987   -0.6105579983    0.0000070000  -0.092207  -0.269032  -0.232170   0.067199  -0.600908
C     0.0000000000    0.1840129998   -0.0000070000   0.166905   0.284313   0.183913   0.414762   0.791134
O     0.0000000000    1.3930880013   -0.0000230000  -0.262006  -0.319841  -0.314867  -0.450096  -0.542914
C    -1.2867069986   -0.6105579983    0.0000070000  -0.092206  -0.269775  -0.232170   0.067326  -0.600908
H     1.3249359986   -1.2653330019   -0.8834480025   0.046278   0.094302   0.097996  -0.019109   0.155785
H     2.1479950016    0.0653969998   -0.0000210000   0.047195   0.098118   0.101655  -0.011743   0.165226
H     1.3249480003   -1.2652689979    0.8835080006   0.046278   0.094391   0.097996  -0.018784   0.155786
H    -2.1479940014    0.0653960002   -0.0000210000   0.047195   0.098360   0.101655  -0.011627   0.165226
H    -1.3249349984   -1.2653330019   -0.8834480025   0.046278   0.094470   0.097996  -0.018875   0.155786
H    -1.3249480003   -1.2652699980    0.8835090007   0.046279   0.094684   0.097996  -0.019062   0.155786
6
Symbol, X, Y, Z atomic coordinates followed by atomic charges from H, SH, CM5, AVH-B, HLYGAt
C    -0.6650299975    0.0533210002   -0.0500550000  -0.015346  -0.086115  -0.135053   0.449370   0.122160
O     0.7191230000    0.0291530000   -0.3038730002  -0.233675  -0.396844  -0.462159  -0.506913  -0.596184
H    -1.0826510008    1.0727699975   -0.1115499999   0.027471   0.048061   0.084010  -0.088078   0.003832
H    -1.1459590000   -0.5601739989   -0.8219389994   0.041958   0.076737   0.100943  -0.057758   0.074234
H    -0.9159450025   -0.3750280000    0.9353449989   0.027477   0.048068   0.084017  -0.087961   0.003827
H     1.1785159982    0.5556469990    0.3520520002   0.152115   0.310092   0.328241   0.291341   0.392131
14
Symbol, X, Y, Z atomic coordinates followed by atomic charges from H, SH, CM5, AVH-B, HLYGAt
N    -2.4370569999   -0.8926309998   -0.0494340000  -0.164526  -0.425544  -0.621349  -0.501618  -0.763642
C    -1.2073559974   -0.2567190000   -0.0029430000   0.051104   0.116755   0.102009   0.354602   0.429688
C     1.3030910024    1.0429179998    0.0043200000  -0.080389  -0.161496  -0.130550  -0.255462  -0.354836
C    -1.1237730020    1.1460500026   -0.0004180000  -0.078483  -0.144158  -0.125599  -0.238717  -0.377004
C    -0.0209680000   -1.0053379986   -0.0039320000  -0.085468  -0.182693  -0.127362  -0.317468  -0.461331
C     1.1950929982   -0.3405589999    0.0002280000   0.091606   0.162749   0.106054   0.391038   0.424997
C     0.1160879998    1.7751180006    0.0031250000  -0.034814  -0.058468  -0.089420   0.114288  -0.065895
H    -2.0391530020    1.7400990001   -0.0050420000   0.036955   0.073111   0.095554   0.045070   0.183709
H    -0.0373060000   -2.0956199993   -0.0121480000   0.046060   0.092382   0.105713   0.069893   0.210182
F     2.3163930016   -1.0790299999    0.0012280000  -0.109716  -0.127960  -0.137399  -0.202139  -0.215423
H     0.1604490000    2.8651589981    0.0053830000   0.045986   0.083908   0.101440   0.013257   0.144179
H     2.2822689986    1.5188989995    0.0074790000   0.047260   0.094978   0.103784   0.065562   0.178855
H    -3.2434289975   -0.3557760002    0.2325840000   0.117092   0.238135   0.308466   0.230478   0.330810
H    -2.4714210007   -1.8586509993    0.2396760002   0.117328   0.238294   0.308687   0.231210   0.335712
7
Symbol, X, Y, Z atomic coordinates followed by atomic charges from H, SH, CM5, AVH-B, HLYGAt
C    -1.1665660020   -0.1489239998   -0.0000140000  -0.087640  -0.268348  -0.229289   0.035923  -0.399521
C     0.2314960000    0.3956859998   -0.0000170000   0.142497   0.212553   0.126981   0.522190   0.552046
O     1.2284580023   -0.2781530001   -0.0000080000  -0.245001  -0.294580  -0.303932  -0.452818  -0.480025
H    -1.7046910015    0.2286220000    0.8830989995   0.051446   0.102525   0.102500  -0.008667   0.113592
H    -1.7047200004    0.2286689999   -0.8830869978   0.051445   0.102632   0.102499  -0.008587   0.113590
H    -1.1595039998   -1.2446009977   -0.0000400000   0.050190   0.102503   0.103949  -0.007284   0.133959
H     0.3097730001    1.5111229997   -0.0000180000   0.037059   0.042712   0.097293  -0.080760  -0.033641
17
Symbol, X, Y, Z atomic coordinates followed by atomic charges from H, SH, CM5, AVH-B, HLYGAt
N     1.7812860002   -0.6087460003   -0.0001740000  -0.102463  -0.234108  -0.477092  -0.418731  -0.438099
C     0.4450430002   -0.2829840002   -0.0000780000   0.044896   0.097400   0.100302   0.276762   0.396926
C    -2.3099570002    0.3405949998    0.0000460000  -0.071258  -0.114560  -0.126464  -0.129843  -0.259883
C    -0.5292019976   -1.3014909981   -0.0000140000  -0.073881  -0.132106  -0.120688  -0.180321  -0.425985
C     0.0102450000    1.0542460011   -0.0000690000  -0.076438  -0.134084  -0.123679  -0.195800  -0.215354
C    -1.3522340019    1.3503030025   -0.0000120000  -0.043274  -0.068191  -0.098208   0.063595  -0.127804
C    -1.8810860017   -0.9894410019    0.0000470000  -0.043695  -0.069660  -0.098597   0.056532   0.009003
H    -0.2098010002   -2.3463990005   -0.0000200000   0.033597   0.065945   0.092279   0.030899   0.161505
H     0.7350239973    1.8677620021   -0.0001090000   0.032292   0.067898   0.091965   0.027499   0.124288
H    -1.6647740003    2.3962549975   -0.0000110000   0.039805   0.073951   0.095181   0.009768   0.137552
H    -2.6137289979   -1.7986320005    0.0000960000   0.040256   0.075086   0.095598   0.011232   0.111579
H    -3.3730549983    0.5813330015    0.0000930000   0.035095   0.070195   0.090471   0.028804   0.142242
H     2.0249750004   -1.5844359989    0.0001770000   0.116052   0.231035   0.312975   0.214998   0.313303
C     2.8394949988    0.3619369998    0.0001050000  -0.037753  -0.129173  -0.122024   0.411552  -0.320414
H     2.8043450005    1.0107789987    0.8922440019   0.031710   0.060532   0.091740  -0.075577   0.120156
H     2.8044970014    1.0110520012   -0.8918320004   0.031722   0.060570   0.091753  -0.075535   0.120173
H     3.8030309982   -0.1587740002    0.0000920000   0.043335   0.079267   0.104445  -0.055835   0.150811
15
Symbol, X, Y, Z atomic coordinates followed by atomic charges from H, SH, CM5, AVH-B, HLYGAt
C    -2.3735079976   -0.4129070000    0.0000010000  -0.091511  -0.221433  -0.237165   0.101527  -0.378350
C    -1.1755559978    0.5120819998    0.0000020000   0.019980   0.017518  -0.059532   0.425679   0.363233
O     0.0000000000   -0.2538009999    0.0000010000  -0.161209  -0.187906  -0.272300  -0.416430  -0.448914
C     1.1755559978    0.5120810002    0.0000050000   0.019980   0.017444  -0.059532   0.424659   0.363236
C     2.3735079976   -0.4129070000    0.0000020000  -0.091511  -0.221462  -0.237165   0.102462  -0.378352
H    -2.3634520007   -1.0548789976    0.8905789988   0.035106   0.074667   0.088289  -0.040133   0.107555
H    -3.3039190011    0.1704999999    0.0000000000   0.035681   0.074931   0.086628  -0.039267   0.087770
H    -2.3634500004   -1.0548799977   -0.8905749982   0.035106   0.074723   0.088289  -0.040144   0.107556
H    -1.1962480015    1.1716020016   -0.8898260008   0.023114   0.036728   0.084819  -0.099656  -0.031654
H    -1.1962470014    1.1716000013    0.8898310015   0.023114   0.036807   0.084819  -0.099692  -0.031654
H     1.1962480015    1.1716040018   -0.8898210000   0.023114   0.036755   0.084819  -0.099475  -0.031655
H     1.1962470014    1.1715980010    0.8898360022   0.023114   0.036819   0.084819  -0.099470  -0.031655
H     3.3039180009    0.1704999999    0.0000060000   0.035681   0.074990   0.086628  -0.039463   0.087771
H     2.3634490003   -1.0548829981    0.8905759983   0.035106   0.074691   0.088289  -0.040300   0.107556
H     2.3634510005   -1.0548760024   -0.8905779986   0.035106   0.074702   0.088289  -0.040324   0.107556
19
Symbol, X, Y, Z atomic coordinates followed by atomic charges from H, SH, CM5, AVH-B, HLYGAt
C    -1.2435069979    1.6598560019    0.0002360000  -0.013495  -0.051904  -0.058549   0.187848  -0.174077
C    -0.0567640001    2.3723360023    0.0002320000  -0.059143  -0.117932  -0.113794  -0.191379  -0.183734
C     1.1433589989    1.6681330003    0.0000860000  -0.008091  -0.035834  -0.058708   0.206053  -0.144272
C     1.1813420003    0.2741440002   -0.0000540000  -0.043335  -0.096741  -0.039687  -0.424053  -0.157895
C     2.4883409975   -0.4131239997   -0.0002030000   0.203075   0.322375   0.263370   0.731734   0.678578
O     2.6578610014   -1.6170860000   -0.0003270000  -0.263163  -0.350738  -0.327891  -0.502935  -0.579088
O     3.5371210002    0.4217080002   -0.0001890000  -0.157117  -0.362339  -0.363506  -0.469216  -0.582189
C    -0.0345930000   -0.4933329999   -0.0000530000   0.082413   0.140983   0.153558   0.478178   0.499386
N    -0.0015640000   -1.8299869991   -0.0001880000  -0.127772  -0.375445  -0.589549  -0.475216  -1.074291
C    -1.2472470001    0.2652160001    0.0000970000  -0.005754  -0.042333   0.056979  -0.348854  -0.111311
N    -2.5504919984   -0.3752180000    0.0001150000   0.248764   0.368816   0.076527   0.719249   0.723208
O    -2.6090120022   -1.5998079989    0.0000030000  -0.199923  -0.266600  -0.172117  -0.392341  -0.465379
O    -3.5405310023    0.3279399998    0.0002420000  -0.204570  -0.257912  -0.166253  -0.384838  -0.413300
H    -2.2063730007    2.1664939997    0.0003470000   0.055607   0.103616   0.122446   0.016427   0.192349
H    -0.0647860002    3.4606849981    0.0003410000   0.049847   0.094882   0.105521   0.055000   0.154179
H     2.0878769990    2.2085569997    0.0000790000   0.052128   0.095690   0.115411   0.004739   0.186835
H     4.3340560006   -0.1219479998   -0.0002900000   0.183026   0.362290   0.365263   0.342664   0.438472
H     0.9044149984   -2.2846160000   -0.0002880000   0.104237   0.236185   0.314160   0.222620   0.507639
H    -0.8755170013   -2.3351399986   -0.0001830000   0.103265   0.232941   0.316870   0.224319   0.504888
12
Symbol, X, Y, Z atomic coordinates followed by atomic charges from H, SH, CM5, AVH-B, HLYGAt
H     1.2625669979   -2.1460769988    0.0000060000   0.057762   0.108228   0.114270   0.057498   0.185151
H    -1.2625669979    2.1460769988   -0.0000060000   0.057762   0.108236   0.114270   0.057749   0.185151
C    -0.6967219974    1.2148990005   -0.0000030000  -0.047105  -0.117649  -0.096982  -0.096191  -0.249374
H    -1.2622310021   -2.1462750010   -0.0000060000   0.057762   0.108259   0.114270   0.057800   0.185150
F     2.7101349996    0.0002120000    0.0000140000  -0.107295  -0.124740  -0.134936  -0.187302  -0.204900
C     0.6967219974   -1.2148990005    0.0000030000  -0.047105  -0.117600  -0.096982  -0.094759  -0.249374
C     0.6965320016    1.2150080004    0.0000030000  -0.047105  -0.117665  -0.096981  -0.094636  -0.249372
C    -1.3688070013   -0.0001070000   -0.0000070000   0.085975   0.143555   0.100373   0.263616   0.333345
C    -0.6965320016   -1.2150080004   -0.0000030000  -0.047105  -0.117668  -0.096981  -0.096316  -0.249372
C     1.3688070013    0.0001070000    0.0000070000   0.085975   0.143494   0.100373   0.262471   0.333345
H     1.2622310021    2.1462750010    0.0000060000   0.057762   0.108299   0.114270   0.057456   0.185150
F    -2.7101349996   -0.0002120000   -0.0000140000  -0.107295  -0.124760  -0.134936  -0.187397  -0.204900
10
Symbol, X, Y, Z atomic coordinates followed by atomic charges from H, SH, CM5, AVH-B, HLYGAt
H    -2.8606870009    0.0000000000    0.0000010000   0.057299   0.108345   0.113344   0.081055   0.257452
H    -1.5279879991    2.1579459991    0.0000040000   0.060809   0.097919   0.126133  -0.001363   0.044417
C    -1.0367210012    1.1816080018    0.0000010000   0.051042   0.053349   0.080452   0.342453   0.620894
H    -1.5279889992   -2.1579449989   -0.0000030000   0.060809   0.098191   0.126133  -0.001051   0.044417
F     2.1862109997    0.0000000000    0.0000020000  -0.088858  -0.118212  -0.102535  -0.213554  -0.261206
N     0.2947330001   -1.1848470002   -0.0000010000  -0.167195  -0.239952  -0.353899  -0.454609  -0.802655
N     0.2947330001    1.1848470002    0.0000020000  -0.167195  -0.239944  -0.353899  -0.455005  -0.802655
C    -1.7723699992    0.0000000000    0.0000000000  -0.057461  -0.141843  -0.100117  -0.289408  -0.818052
C    -1.0367210012   -1.1816080018   -0.0000030000   0.051042   0.053061   0.080452   0.341198   0.620895
C     0.8658410013    0.0000000000    0.0000010000   0.199710   0.329088   0.383958   0.650286   1.096493
16
Symbol, X, Y, Z atomic coordinates followed by atomic charges from H, SH, CM5, AVH-B, HLYGAt
H     1.7030100013    2.0857690004   -0.2123249998   0.036666   0.070027   0.090941  -0.040521   0.029054
C     1.1793539979    1.2165719995    0.2071900001  -0.049193  -0.107033  -0.157458   0.179720   0.026361
H     1.2874009986    1.2825270014    1.3028280013   0.028731   0.056071   0.084293  -0.061772   0.029703
C     1.8031730025   -0.0892549999   -0.2866560000  -0.057203  -0.134766  -0.163960  -0.034984  -0.137150
C    -0.3057630000    1.2633729983   -0.1621000001  -0.064896  -0.164504  -0.166960  -0.094200  -0.273633
H     1.0325140001   -1.3691420023    1.2856750025   0.026885   0.043188   0.089436  -0.099962   0.039391
H     1.3226639974   -2.2182860021   -0.2530030002   0.045204   0.076081   0.108633  -0.059637   0.083943
H    -1.0107680024   -0.0627649999    1.4170100022   0.028270   0.030809   0.095858  -0.108507   0.065964
H     2.8345369999   -0.1967540000    0.0786589999   0.037186   0.072079   0.091627  -0.016701   0.041739
H     1.8392800019   -0.0947780002   -1.3866809988   0.034194   0.067386   0.091157  -0.024928   0.078977
C     0.9709200006   -1.2766679989    0.1835740002   0.023769  -0.002606  -0.053758   0.447736   0.058929
H    -0.8053279997    2.1326610018    0.2862760000   0.039311   0.077593   0.094823  -0.003240   0.085036
C    -0.9883959986   -0.0076860000    0.3092500000   0.135460   0.203630   0.126724   0.641635   0.329730
H    -0.4327080000    1.3200799986   -1.2533039995   0.038273   0.076649   0.096925  -0.008648   0.132322
O    -0.3822969999   -1.1456440019   -0.2054689999  -0.166362  -0.206019  -0.264102  -0.438488  -0.353960
F    -2.2841019996   -0.0374710000   -0.1215319998  -0.136299  -0.158589  -0.164179  -0.277507  -0.236406
17
Symbol, X, Y, Z atomic coordinates followed by atomic charges from H, SH, CM5, AVH-B, HLYGAt
H    -0.5486090003   -1.1857499988    2.0811129977   0.031738   0.055801   0.095778  -0.073104   0.076606
C    -0.0154670000   -0.7770320000    1.2117859991  -0.016155  -0.037350  -0.064982   0.388303   0.026520
C    -0.0154670000   -0.7770320000   -1.2117859991  -0.016155  -0.037105  -0.064982   0.386757   0.026520
C     0.6306349976    1.3285370019    0.0000000000  -0.053045  -0.104693  -0.160527   0.155083   0.029107
C    -0.0164680000    0.7486209994   -1.2589659999  -0.056173  -0.117412  -0.160182   0.010309  -0.169161
C    -0.0164680000    0.7486209994    1.2589659999  -0.056173  -0.117428  -0.160182   0.011184  -0.169161
N    -0.6734970022   -1.2358620011    0.0000000000  -0.152864  -0.269913  -0.521755  -0.486816  -0.685671
H     1.0368549995   -1.1329770024   -1.2733399981   0.011606   0.020624   0.074495  -0.114489   0.048997
H     1.7061480010    1.0815769986    0.0000000000   0.023778   0.048351   0.079507  -0.066341   0.041050
H    -1.0583139980    1.0973489983   -1.3325520017   0.027583   0.055766   0.085456  -0.040455   0.098102
H    -1.0583139980    1.0973489983    1.3325520017   0.027583   0.055769   0.085456  -0.040786   0.098102
H    -0.7785790019   -2.2429749977    0.0000000000   0.095646   0.195320   0.289131   0.173650   0.349715
H     1.0368549995   -1.1329770024    1.2733399981   0.011606   0.020655   0.074495  -0.114911   0.048997
H    -0.5486090003   -1.1857499988   -2.0811129977   0.031738   0.055702   0.095778  -0.072633   0.076606
H     0.5595020020    2.4256690005    0.0000000000   0.029550   0.057839   0.083736  -0.049781   0.014408
H     0.5120180001    1.0940170023   -2.1594019984   0.029874   0.059004   0.084386  -0.032803   0.044632
H     0.5120180001    1.0940170023    2.1594019984   0.029874   0.059081   0.084386  -0.033156   0.044632
10
Symbol, X, Y, Z atomic coordinates followed by atomic charges from H, SH, CM5, AVH-B, HLYGAt
C     0.0000000000    2.0665209996   -0.0000080000  -0.067906  -0.207637  -0.208763   0.331617  -0.498221
C    -0.0000200000    0.6048010001   -0.0001240000  -0.078081  -0.078358  -0.089575  -0.202605  -0.033179
C    -0.0000120000   -0.6048010001   -0.0001340000  -0.078081  -0.078304  -0.089575  -0.204394  -0.033179
C     0.0000020000   -2.0665209996   -0.0000110000  -0.067906  -0.208037  -0.208763   0.331895  -0.498221
H     0.0000050000    2.4597030011    1.0264240012   0.048663   0.095333   0.099447  -0.042956   0.177064
H    -0.8888750005    2.4598810004   -0.5131510002   0.048662   0.095330   0.099446  -0.042710   0.177167
H     0.8888860021    2.4598570023   -0.5131510002   0.048662   0.095286   0.099446  -0.042717   0.177168
H     0.0000050000   -2.4596949999    1.0264250013   0.048663   0.095191   0.099447  -0.042748   0.177063
H     0.8888850020   -2.4598649981   -0.5131510002   0.048662   0.095398   0.099446  -0.042677   0.177169
H    -0.8888750005   -2.4598800003   -0.5131510002   0.048662   0.095797   0.099446  -0.042706   0.177167
16
Symbol, X, Y, Z atomic coordinates followed by atomic charges from H, SH, CM5, AVH-B, HLYGAt
N     1.3860299997    0.8267760019    0.0000000000  -0.073580  -0.255572  -0.416009  -0.417733  -0.634782
C     0.0022690000    0.7191350018    0.0000000000   0.025847   0.052929   0.093780   0.128189   0.307534
C    -0.2921230002   -0.6573409997    0.0000000000   0.025845   0.052869   0.093768   0.133055   0.325184
O     3.1690189980   -0.6776739991    0.0000000000  -0.343881  -0.416309  -0.380019  -0.597159  -0.595764
N     0.9267120019   -1.3213869975    0.0000000000  -0.073577  -0.255447  -0.416002  -0.418320  -0.645353
C    -1.6017940010   -1.1121250019    0.0000000000  -0.057990  -0.115549  -0.105098  -0.097387  -0.344884
H    -1.8305450006   -2.1780929979    0.0000000000   0.046082   0.087432   0.103326   0.040391   0.194584
C    -2.6205000002   -0.1533740002    0.0000000000  -0.052556  -0.089242  -0.107180  -0.028937  -0.158654
H    -3.6606259975   -0.4804930001    0.0000000000   0.042378   0.080219   0.097853   0.026669   0.151377
C    -2.3284780015    1.2118839975    0.0000000000  -0.052552  -0.088985  -0.107177  -0.033189  -0.161704
C    -1.0067209979    1.6699380026    0.0000000000  -0.058000  -0.115574  -0.105105  -0.092013  -0.333270
H    -3.1438160020    1.9358230022    0.0000000000   0.042387   0.080044   0.097860   0.027308   0.150877
H    -0.7793669997    2.7362029993    0.0000000000   0.046082   0.087420   0.103329   0.039282   0.191720
C     1.9853109988   -0.4245789999    0.0000000000   0.181212   0.316155   0.348526   0.728881   0.764895
H     1.9304210025    1.6740089999    0.0000000000   0.151156   0.289861   0.349064   0.280553   0.392794
H     1.0770700016   -2.3171610018    0.0000000000   0.151157   0.289759   0.349063   0.280420   0.395446
15
Symbol, X, Y, Z atomic coordinates followed by atomic charges from H, SH, CM5, AVH-B, HLYGAt
H     0.3745239999    2.0418269980    0.1016949999   0.104350   0.212163   0.298301   0.196213   0.339650
N    -0.0867200003    1.1814069991   -0.1720930000  -0.148535  -0.278035  -0.510648  -0.462462  -0.472075
H     0.3165449999   -2.1149150017    0.4087359999   0.045855   0.079840   0.110206  -0.039181   0.162966
C    -1.5111559992    1.2034830023    0.1420400001  -0.016852  -0.065393  -0.063761   0.287255   0.081548
C     0.5683909991    0.0378950000    0.4014919999   0.051811   0.064132   0.054074   0.322242  -0.348963
H    -2.0827840017   -0.1581720002   -1.4329369980   0.030931   0.051707   0.096027  -0.081013   0.110234
H    -3.1927350008   -0.1545020002   -0.0258680000   0.045603   0.077471   0.109198  -0.049911   0.096765
H     0.0211640000   -1.3201549989   -1.1730940008   0.030510   0.053167   0.096695  -0.071422   0.172715
H    -1.9750519990    2.0533339987   -0.3757740001   0.043714   0.077330   0.108032  -0.044639   0.051337
H    -1.7033680003    1.3149170018    1.2275690005   0.023108   0.041047   0.087716  -0.086085   0.063044
C    -2.1411240006   -0.0960820003   -0.3308670002   0.017740  -0.018174  -0.054136   0.356335  -0.060276
Cl    2.3000789974    0.0105820000   -0.1010339999  -0.105811  -0.117335  -0.105328  -0.213306  -0.085532
C    -0.1197109999   -1.2368040001   -0.0805040000   0.010929  -0.036622  -0.057344   0.334538  -0.123990
H     0.5949120009    0.0506500000    1.5056200012   0.031852   0.048126   0.100535  -0.053803   0.272554
O    -1.4847539987   -1.2026430023    0.2483080002  -0.165211  -0.189429  -0.269577  -0.394768  -0.259978
27
Symbol, X, Y, Z atomic coordinates followed by atomic charges from H, SH, CM5, AVH-B, HLYGAt
N    -0.1724990001    0.2745829997    0.0028020000  -0.054562  -0.060679  -0.159678  -0.056279  -0.035909
N    -0.9776209981   -0.6791900018    0.0017320000  -0.080792  -0.096764  -0.178795  -0.177592  -0.416482
C    -2.3480460010   -0.3238649998   -0.0053630000   0.017947   0.048229   0.080866   0.146514   0.634476
C    -2.8280199974    0.9934080000   -0.0117880000  -0.047903  -0.090139  -0.092554  -0.061505  -0.414312
C    -4.1972160022    1.2290030019   -0.0185160000  -0.042144  -0.077417  -0.096901  -0.009637   0.018358
C    -5.1005199983    0.1626499999   -0.0189310000  -0.042440  -0.079324  -0.097577  -0.030406  -0.320889
C    -4.6243649998   -1.1470340023   -0.0125690000  -0.042510  -0.079335  -0.097275  -0.010301   0.019471
C    -3.2529770002   -1.3894159983   -0.0058270000  -0.043047  -0.090559  -0.088259  -0.062704  -0.390577
C     1.1790709992   -0.0402790000    0.0095370000  -0.034838  -0.057454   0.046963  -0.184332  -0.162171
C     1.7155219996   -1.3375900016    0.0148340000  -0.021213  -0.046047  -0.062785   0.178493   0.261158
C     3.0780460005   -1.5246219981    0.0210370000  -0.095931  -0.179777  -0.136565  -0.337196  -0.840271
C     3.9024259991   -0.3692869998    0.0224440000   0.108391   0.211518   0.245702   0.509200   1.003110
N     5.2573550000   -0.4834900000    0.0245820000  -0.143883  -0.428339  -0.599639  -0.516742  -1.033195
N     3.4148729998    0.8685599985    0.0179520000  -0.215314  -0.301919  -0.395347  -0.494757  -0.799523
C     2.0915420010    1.0493399991    0.0111930000   0.105761   0.197533   0.252565   0.463056   0.729699
N     1.6433269983    2.3251820000    0.0064940000  -0.144749  -0.417691  -0.598708  -0.499316  -0.963967
H    -2.1170240004    1.8178279991   -0.0114370000   0.033718   0.065167   0.097664   0.011584   0.147052
H    -4.5685470013    2.2550599976   -0.0235280000   0.042113   0.078491   0.097484   0.020807   0.117236
H    -6.1741509777    0.3558109999   -0.0242360000   0.042372   0.078912   0.097644   0.023516   0.165358
H    -5.3238679769   -1.9841729979   -0.0128760000   0.043356   0.080652   0.098696   0.022585   0.116224
H    -2.8562119980   -2.4053149982   -0.0007980000   0.042345   0.080616   0.102539   0.028981   0.155061
H     1.0260459993   -2.1815319989    0.0135850000   0.047106   0.087116   0.110872   0.006691   0.078350
H     3.5197259980   -2.5208419982    0.0244030000   0.036895   0.076174   0.095782   0.060214   0.264970
H     5.7134760214   -1.3790350020    0.0592659997   0.127434   0.256997   0.320564   0.250763   0.424358
H     5.8150420089    0.3548510000    0.0494850000   0.124763   0.253613   0.321855   0.245492   0.427963
H     2.3099909998    3.0785839991    0.0062640000   0.123868   0.252258   0.321569   0.244630   0.440800
H     0.6520880004    2.5052350011    0.0005850000   0.113285   0.238195   0.313312   0.228267   0.373655
14
Symbol, X, Y, Z atomic coordinates followed by atomic charges from H, SH, CM5, AVH-B, HLYGAt
C    -0.0929160002   -0.6328970026    0.0000000000   0.268862   0.408675   0.327053   0.856587   0.343129
C     0.5863250000    0.7266629974    0.0000000000  -0.027660  -0.081718  -0.092065  -0.303180   0.200103
H     1.6625100003    0.4936279998    0.0000000000   0.043345   0.079721   0.103851   0.027373   0.076035
C     0.2454780002    1.5071419995    1.2696290001  -0.089456  -0.216931  -0.234500   0.279549  -0.551790
C     0.2454780002    1.5071419995   -1.2696290001  -0.089456  -0.216956  -0.234500   0.280155  -0.551790
F     0.2457660001   -1.3595899991    1.0775380006  -0.109203  -0.145811  -0.135551  -0.262210  -0.162926
F     0.2457660001   -1.3595899991   -1.0775380006  -0.109203  -0.145812  -0.135551  -0.262186  -0.162926
F    -1.4328339989   -0.5353819989    0.0000000000  -0.107362  -0.143490  -0.133490  -0.263011  -0.137690
H     0.5076929998    0.9459950025    2.1746110013   0.035931   0.075968   0.088777  -0.059852   0.150626
H    -0.8261999978    1.7456749986    1.3063209996   0.035436   0.075052   0.088301  -0.063463   0.161324
H     0.8031969978    2.4521229979    1.2786220016   0.038695   0.080113   0.090288  -0.053011   0.161978
H     0.5076929998    0.9459950025   -2.1746110013   0.035931   0.075981   0.088777  -0.060008   0.150626
H     0.8031969978    2.4521229979   -1.2786220016   0.038695   0.080125   0.090288  -0.053158   0.161978
H    -0.8261999978    1.7456749986   -1.3063209996   0.035436   0.075074   0.088301  -0.063594   0.161324
9
Symbol, X, Y, Z atomic coordinates followed by atomic charges from H, SH, CM5, AVH-B, HLYGAt
H     2.1495359973    0.7680540006    0.0000000000   0.051683   0.101166   0.106762   0.063554   0.158381
C     1.1297389988    0.3945069999    0.0000000000  -0.081571  -0.143612  -0.132564  -0.149211  -0.184311
C     0.6962440022   -0.9732499996    0.0000000000  -0.081564  -0.144169  -0.132559  -0.150195  -0.208751
C    -0.0053250000    1.1439729979    0.0000000000   0.010909  -0.013232  -0.012063   0.158391  -0.077918
H     1.3146980018   -1.8660149976    0.0000000000   0.051682   0.101480   0.106766   0.063605   0.162504
C    -0.6632909995   -0.9320589989    0.0000000000   0.010902  -0.013390  -0.012074   0.159420  -0.049906
H    -1.4296330007   -1.6996810004    0.0000000000   0.059897   0.103027   0.122382   0.028986   0.151607
H    -0.1895809998    2.2128770013    0.0000000000   0.059891   0.102848   0.122382   0.029280   0.160909
O    -1.0955189977    0.3472299999    0.0000000000  -0.081829  -0.094118  -0.169028  -0.203832  -0.112514
9
Symbol, X, Y, Z atomic coordinates followed by atomic charges from H, SH, CM5, AVH-B, HLYGAt
H     2.1665519975   -2.1883000008    0.0000000000   0.056560   0.108776   0.111664   0.068391   0.187639
C     1.3046749991   -1.5276400016    0.0000000000  -0.073623  -0.136805  -0.124442  -0.137932  -0.291660
C     1.3087510025   -0.0925140002    0.0000000000  -0.080581  -0.163022  -0.129259  -0.154482  -0.063889
C    -0.0008670000   -1.9050670005    0.0000000000   0.014064  -0.015320  -0.009207   0.152066  -0.019318
H     2.1606079986    0.5790779975    0.0000000000   0.058934   0.115666   0.114457   0.074515   0.129567
C    -0.0035730000    0.2616080000    0.0000000000   0.069750   0.119032   0.096324   0.269597   0.033545
Cl   -0.7668719986    1.7915160011    0.0000000000  -0.032445  -0.041912  -0.029627  -0.109303  -0.032890
H    -0.5018299999   -2.8662800019    0.0000000000   0.064533   0.110971   0.127045   0.036925   0.151300
O    -0.8050949977   -0.8129219996    0.0000000000  -0.077196  -0.097389  -0.156957  -0.199780  -0.094293
8
Symbol, X, Y, Z atomic coordinates followed by atomic charges from H, SH, CM5, AVH-B, HLYGAt
F    -0.5820990014   -1.7640950012    0.0000000000  -0.123069  -0.133045  -0.154962  -0.245581  -0.221567
O     1.0622639989    1.3566870017    0.0000000000  -0.167887  -0.374356  -0.372217  -0.471940  -0.618838
H     1.0950149988   -1.0833190023    0.8931319983   0.058681   0.097088   0.117037  -0.034748   0.089850
C     0.0037780000    0.5329550017    0.0000000000   0.203686   0.317734   0.260752   0.554551   0.659076
H     1.0950149988   -1.0833190023   -0.8931319983   0.058681   0.097088   0.117037  -0.034755   0.089850
O    -1.1341330006    0.9017569995    0.0000000000  -0.268029  -0.338095  -0.317822  -0.480969  -0.510382
C     0.4757180002   -0.9078059977    0.0000000000   0.052977  -0.030741  -0.014913   0.363000   0.069605
H     0.7373080003    2.2664020009    0.0000000000   0.184965   0.364332   0.365089   0.350448   0.442407
12
Symbol, X, Y, Z atomic coordinates followed by atomic charges from H, SH, CM5, AVH-B, HLYGAt
C    -1.3239760023   -0.5520639983   -0.0900399999  -0.092748  -0.224719  -0.236670   0.156716  -0.533705
C    -0.0007270000    0.0430630000    0.3583329998   0.051545   0.092483   0.001911   0.270174   0.576430
O     0.0488330000    1.3636870002   -0.1581689998  -0.230907  -0.397923  -0.450580  -0.484826  -0.663414
C     1.1965440021   -0.7793830020   -0.1041779999  -0.097395  -0.229278  -0.242114   0.127928  -0.609243
H    -1.4514139982   -1.5630960019    0.3199850000   0.033749   0.071779   0.085370  -0.050326   0.121314
H    -2.1584720012    0.0735209998    0.2515420001   0.035949   0.076600   0.089581  -0.042173   0.147835
H    -1.3602399980   -0.6104280006   -1.1871769992   0.033881   0.072821   0.087665  -0.049278   0.161398
H     0.0060400000    0.0854050002    1.4640640006   0.022003   0.028770   0.086413  -0.077677  -0.035896
H     0.8755069999    1.7789240018    0.0947029999   0.146385   0.301133   0.323771   0.285753   0.385761
H     2.1411499991   -0.3232580002    0.2278289999   0.029084   0.061329   0.081467  -0.050813   0.135105
H     1.1525790016   -1.7966320017    0.3105129999   0.035134   0.075041   0.086515  -0.040627   0.153983
H     1.2101669973   -0.8467770007   -1.2013369982   0.033317   0.071960   0.086670  -0.044857   0.160432
14
Symbol, X, Y, Z atomic coordinates followed by atomic charges from H, SH, CM5, AVH-B, HLYGAt
C     0.4196990001    0.6379869994    0.0000000000  -0.049575  -0.095813  -0.161968   0.087344   0.212717
C    -0.4187270000    1.9115750018    0.0000000000  -0.090077  -0.196196  -0.238860   0.214691  -0.441150
C    -0.4196990001   -0.6379869994    0.0000000000  -0.049575  -0.095718  -0.161968   0.076118   0.212717
C     0.4187270000   -1.9115750018    0.0000000000  -0.090077  -0.196031  -0.238860   0.213825  -0.441150
H     1.0837930022    0.6322159991    0.8799979999   0.026303   0.051988   0.080774  -0.053178  -0.033146
H     1.0837930022    0.6322159991   -0.8799979999   0.026303   0.051975   0.080774  -0.053234  -0.033146
H     0.2134630001    2.8098650015    0.0000000000   0.030192   0.064686   0.080620  -0.061357   0.110291
H    -1.0672719997    1.9569990020   -0.8874990022   0.028422   0.061670   0.079330  -0.065879   0.092216
H    -1.0672719997    1.9569990020    0.8874990022   0.028422   0.061660   0.079330  -0.065832   0.092216
H    -1.0837930022   -0.6322159991    0.8799979999   0.026303   0.051991   0.080774  -0.050965  -0.033146
H    -1.0837930022   -0.6322159991   -0.8799979999   0.026303   0.051966   0.080774  -0.050902  -0.033146
H    -0.2134630001   -2.8098650015    0.0000000000   0.030192   0.064609   0.080620  -0.060529   0.110291
H     1.0672719997   -1.9569990020   -0.8874990022   0.028422   0.061587   0.079330  -0.065004   0.092216
H     1.0672719997   -1.9569990020    0.8874990022   0.028422   0.061605   0.079330  -0.065121   0.092216
10
Symbol, X, Y, Z atomic coordinates followed by atomic charges from H, SH, CM5, AVH-B, HLYGAt
H     1.5452000012   -2.1970620006    0.0000000000   0.044872   0.089902   0.100253   0.048427   0.178301
C     0.8484310023   -1.3637409974    0.0000000000  -0.088727  -0.136310  -0.133761  -0.089642  -0.196445
C     1.1909349988    0.0262430000    0.0000000000  -0.108606  -0.198601  -0.150224  -0.278742  -0.309414
C    -0.5206900001   -1.4663869986    0.0000000000  -0.043174  -0.078076  -0.028699   0.023744  -0.298771
H     2.1784539973    0.4761349998    0.0000000000   0.049653   0.102935   0.105521   0.082416   0.186618
C    -0.0029680000    0.6927589998    0.0000000000   0.105644   0.181774   0.193871   0.410800   0.291557
F    -0.2648929998    1.9934179990    0.0000000000  -0.101474  -0.122566  -0.123342  -0.197463  -0.174937
H    -2.0127150016    0.0664760001    0.0000000000   0.149435   0.282582   0.344549   0.262845   0.316809
N    -1.0376949995   -0.1881110000    0.0000000000  -0.056169  -0.210546  -0.420067  -0.297864  -0.199159
H    -1.1724700003   -2.3333529989    0.0000000000   0.048544   0.088906   0.111906   0.035479   0.205441
11
Symbol, X, Y, Z atomic coordinates followed by atomic charges from H, SH, CM5, AVH-B, HLYGAt
H    -2.8871849994   -0.1090860000    0.0000620000   0.050284   0.094863   0.105989   0.057391   0.215564
F     2.2301299988   -0.0354520000   -0.0000480000  -0.102455  -0.126227  -0.123089  -0.210611  -0.263403
C     0.8965160019   -0.0247960000   -0.0000200000   0.146031   0.242228   0.247261   0.507297   0.872071
H    -1.7056999996    2.1156629989    0.0000290000   0.056290   0.099202   0.111550   0.020755   0.088366
H    -1.5000630002   -2.1920859991    0.0000400000   0.051544   0.085130   0.116969  -0.003105   0.049364
C    -1.7993960001   -0.0491130000    0.0000390000  -0.053456  -0.116724  -0.102530  -0.192087  -0.613156
N     0.3064020000   -1.1893030004   -0.0000030000  -0.164584  -0.225790  -0.358228  -0.415739  -0.696996
C     0.2476380000    1.2098479987   -0.0000100000  -0.055686  -0.145656  -0.099954  -0.244916  -0.647479
C    -1.1403140021    1.1827209990    0.0000200000  -0.014627  -0.044857  -0.067085   0.137671   0.297158
C    -1.0293279987   -1.2062379994    0.0000270000   0.029195   0.028279   0.054943   0.266683   0.469512
H     0.8186750026    2.1371249978   -0.0000250000   0.057460   0.109548   0.114200   0.076658   0.228999
31
Symbol, X, Y, Z atomic coordinates followed by atomic charges from H, SH, CM5, AVH-B, HLYGAt
C    -0.0263090000    0.4390400001   -0.0224080000   0.056544   0.068550   0.112046   0.219038  -0.160549
N    -0.1433830000    1.4466480007   -1.0673039991  -0.088714  -0.271292  -0.436404  -0.460654  -0.666964
C    -0.2615409998    2.7226469979   -0.6019119994   0.191725   0.330380   0.360456   0.743438   0.803586
O    -0.4369669997    3.7382279993   -1.2266600010  -0.320555  -0.392895  -0.357242  -0.568448  -0.567407
N    -0.1349020002    2.6297780008    0.7927929981  -0.071569  -0.278791  -0.410936  -0.492073  -0.658990
C    -0.0270070000    1.3403540000    1.2435220000   0.176111   0.282876   0.287680   0.581967   0.691843
O     0.0574090000    0.9789190010    2.3870259988  -0.272372  -0.335013  -0.315971  -0.481829  -0.531596
C    -1.2299709993   -0.5037120002   -0.0648309998  -0.005773  -0.002180  -0.010306  -0.078443   0.305860
C    -2.3701229991   -0.2804479999    0.7095260009  -0.040574  -0.083441  -0.091065  -0.015381  -0.251892
C    -3.4830850006   -1.1089259987    0.5784299988  -0.035660  -0.074414  -0.090718  -0.004084  -0.129382
C    -3.4700600021   -2.1646390007   -0.3298000001  -0.037089  -0.076386  -0.092217  -0.021924  -0.135005
C    -2.3344409978   -2.3925510004   -1.1059259978  -0.037960  -0.076556  -0.092907  -0.022537  -0.156487
C    -1.2202760019   -1.5696839988   -0.9704279981  -0.043047  -0.086534  -0.094225   0.005455  -0.201796
C     1.3059700016   -0.3104380002   -0.0595259998  -0.008771  -0.005169  -0.013717  -0.094134   0.445477
C     1.5090399994   -1.3818010007    0.8172090018  -0.035214  -0.078977  -0.087040   0.016105  -0.260029
C     2.7231209978   -2.0588310016    0.8259129985  -0.036159  -0.074644  -0.091198  -0.015729  -0.145661
C     3.7471309984   -1.6768240004   -0.0422940000  -0.039191  -0.077789  -0.094322  -0.024794  -0.138793
C     3.5494599998   -0.6092210003   -0.9126890016  -0.040804  -0.077959  -0.095746  -0.014622  -0.153761
C     2.3339999974    0.0758850000   -0.9183969981  -0.050094  -0.090618  -0.099740  -0.016334  -0.295625
H    -0.3922380002    1.2273540011   -2.0194819981   0.141821   0.277478   0.341004   0.262545   0.375759
H    -0.1492740003    3.4412969981    1.3934550016   0.158586   0.303167   0.357311   0.292083   0.394738
H    -2.3965090025    0.5354839978    1.4314749978   0.040858   0.078420   0.102883   0.006602   0.155588
H    -4.3645770001   -0.9271880021    1.1942949989   0.047646   0.087274   0.103050   0.026360   0.144949
H    -4.3414569990   -2.8128059991   -0.4297110001   0.046671   0.085723   0.101966   0.027970   0.137114
H    -2.3128850012   -3.2195320003   -1.8167500016   0.046481   0.085596   0.101877   0.027531   0.149754
H    -0.3270150002   -1.7639430003   -1.5661769986   0.040328   0.077184   0.099611   0.005615   0.113227
H     0.7107579995   -1.6796289995    1.4966310002   0.045239   0.086306   0.105163   0.014561   0.136270
H     2.8719519984   -2.8906449981    1.5153990002   0.046713   0.085653   0.102138   0.026021   0.150109
H     4.6979019998   -2.2112750020   -0.0365880000   0.045214   0.083423   0.100509   0.026409   0.137106
H     4.3447280021   -0.3013380000   -1.5926950000   0.044894   0.083191   0.100285   0.024356   0.149606
H     2.1884389998    0.9190830022   -1.5926419976   0.034728   0.067450   0.097803   0.004943   0.162951
17
Symbol, X, Y, Z atomic coordinates followed by atomic charges from H, SH, CM5, AVH-B, HLYGAt
H    -0.3842950000    2.1697910012   -0.2862590002   0.036093   0.070887   0.091217  -0.031193   0.113219
C     0.0831019998    1.2721210014    0.1394070001  -0.056221  -0.129281  -0.160920   0.123148  -0.145929
H    -0.0641460000    1.3133239985    1.2304660023   0.030324   0.061421   0.087230  -0.047448   0.145530
C     1.5807200001    1.2279670000   -0.1810730002  -0.052313  -0.119304  -0.156069   0.027624  -0.083485
C    -0.5977389979    0.0205380000   -0.3948890002   0.023277   0.013570  -0.034129   0.089481  -0.444142
H     2.1857349995   -0.0972769999    1.4123499989   0.016061   0.028259   0.079006  -0.107669   0.081629
H     3.2533269980   -0.1384040002   -0.0122820000   0.035964   0.062974   0.100079  -0.066415   0.085588
H     1.9378379979   -2.0828299978   -0.0896880002   0.101837   0.206191   0.295489   0.185036   0.349520
H     2.0856620008    2.0833230005    0.2889650002   0.036083   0.069621   0.090719  -0.026252   0.046452
H     1.7312620000    1.3118480015   -1.2681249991   0.030912   0.061210   0.088790  -0.038393   0.100842
C     2.2027230008   -0.0791830001    0.3012080002  -0.014450  -0.042107  -0.063209   0.381563  -0.033639
Cl   -2.3484200023    0.0019900000    0.0663190001  -0.116831  -0.124761  -0.123235  -0.205133  -0.112431
C     0.0836209999   -1.2404570003    0.1261230000  -0.019756  -0.061806  -0.065442   0.363254  -0.172401
H    -0.5830379999    0.0126300000   -1.4919859991   0.041237   0.070825   0.103437  -0.010507   0.315943
N     1.4778119980   -1.2002330023   -0.2727600001  -0.148323  -0.269263  -0.517857  -0.484083  -0.581327
H    -0.3948719999   -2.1293270001   -0.3034399999   0.037777   0.067719   0.102676  -0.056059   0.174953
H    -0.0517000000   -1.2802250011    1.2272050007   0.018315   0.033832   0.082207  -0.096965   0.159678
7
Symbol, X, Y, Z atomic coordinates followed by atomic charges from H, SH, CM5, AVH-B, HLYGAt
Cl   -1.1253330005   -0.1419950000    0.0000000000  -0.188351  -0.200667  -0.191402  -0.325272  -0.241524
C     0.5796039996    0.6161280012    0.0000000000   0.036320  -0.006118  -0.001349   0.517723  -0.061600
H     0.5884979974    1.2396880000   -0.8985640024   0.050997   0.085521   0.115645  -0.045355   0.174935
N     1.6382149983   -0.2983719999    0.0000000000  -0.179029  -0.428136  -0.645297  -0.545049  -0.811041
H     0.5884979974    1.2396880000    0.8985640024   0.050997   0.085514   0.115645  -0.045361   0.174935
H     1.6933790025   -0.8735999987   -0.8317650000   0.114528   0.231956   0.303381   0.221711   0.382147
H     1.6933790025   -0.8735999987    0.8317650000   0.114528   0.231921   0.303381   0.221594   0.382147
11
Symbol, X, Y, Z atomic coordinates followed by atomic charges from H, SH, CM5, AVH-B, HLYGAt
H     2.8703000024   -0.1836650002    0.0000080000   0.047330   0.079775   0.112817  -0.000624   0.044448
H     1.7699949990    2.0612340007    0.0000090000   0.053154   0.097411   0.108814   0.046372   0.210849
C     1.1682070017    1.1522989981    0.0000050000  -0.038406  -0.090517  -0.087283  -0.085139  -0.534506
H    -0.7613599988    2.1686689974    0.0000010000   0.061948   0.113826   0.118202   0.055954   0.115505
F    -2.2509029984    0.0193980000   -0.0000070000  -0.100679  -0.117615  -0.128183  -0.173008  -0.162846
C    -0.2303600000   -1.1918240007   -0.0000030000   0.007664  -0.029519   0.039825   0.126444   0.357136
C    -0.2222470000    1.2210350008    0.0000010000  -0.035051  -0.105805  -0.082948  -0.048585   0.138904
C     1.7809119989   -0.1005559999    0.0000050000   0.012921   0.005092   0.039518   0.201438   0.427724
N     1.0971830007   -1.2426739988    0.0000010000  -0.151774  -0.183739  -0.350509  -0.336912  -0.634390
C    -0.9135359974    0.0202480000   -0.0000030000   0.087846   0.135557   0.108760   0.192643  -0.024513
H    -0.7857189995   -2.1330570009   -0.0000060000   0.055042   0.095528   0.121001   0.021412   0.061688
21
Symbol, X, Y, Z atomic coordinates followed by atomic charges from H, SH, CM5, AVH-B, HLYGAt
C    -0.4105560001    1.5208140019    0.0000000000   0.269224   0.409813   0.327439   0.857243   0.350083
C    -0.3804819998    0.0051120000    0.0000000000  -0.033391  -0.097249  -0.092639  -0.258516  -0.180918
H    -1.4411539982   -0.2971500000    0.0000000000   0.040246   0.075635   0.102332   0.016519   0.152872
C     0.2873079998   -0.5456799991    1.2664290020  -0.054049  -0.117673  -0.159664   0.174401  -0.146289
C     0.2873079998   -0.5456799991   -1.2664290020  -0.054049  -0.117847  -0.159664   0.172734  -0.146289
F    -1.0482779987    2.0078339980    1.0776870010  -0.110083  -0.146710  -0.136341  -0.262492  -0.150885
F    -1.0482779987    2.0078339980   -1.0776870010  -0.110083  -0.146704  -0.136341  -0.262468  -0.150885
F     0.8206839974    2.0590299987    0.0000000000  -0.107492  -0.143749  -0.133752  -0.261038  -0.143531
H    -0.2225959998   -0.1639159998    2.1603990000   0.032440   0.064139   0.089047  -0.048355   0.073545
H     1.3266990001   -0.1835969998    1.3085170003   0.030218   0.060468   0.087730  -0.057305   0.095664
C     0.2803320000   -2.0746289999    1.2616299997  -0.049087  -0.106487  -0.158473   0.113812  -0.042611
H    -0.2225959998   -0.1639159998   -2.1603990000   0.032440   0.064176   0.089047  -0.047789   0.073545
C     0.2803320000   -2.0746289999   -1.2616299997  -0.049087  -0.106404  -0.158473   0.111875  -0.042611
H     1.3266990001   -0.1835969998   -1.3085170003   0.030218   0.060516   0.087730  -0.056455   0.095664
C     0.9347380009   -2.6376889990    0.0000000000  -0.051502  -0.109628  -0.160859   0.088338  -0.080733
H     0.7918039977   -2.4486899978   -2.1592939987   0.033681   0.064734   0.087958  -0.041256   0.033815
H    -0.7615260017   -2.4315210020   -1.3220750020   0.028165   0.055134   0.083549  -0.053756   0.045816
H     2.0057509978   -2.3745860003    0.0000000000   0.028360   0.055922   0.083730  -0.050525   0.053231
H    -0.7615260017   -2.4315210020    1.3220750020   0.028165   0.055142   0.083549  -0.054272   0.045816
H     0.7918039977   -2.4486899978    2.1592939987   0.033681   0.064763   0.087958  -0.041975   0.033815
H     0.8802200003   -3.7355569985    0.0000000000   0.031973   0.061996   0.086143  -0.038729   0.030885
10
Symbol, X, Y, Z atomic coordinates followed by atomic charges from H, SH, CM5, AVH-B, HLYGAt
H     2.2029740002   -0.1558700000    0.0000000000   0.050487   0.101226   0.106248   0.065733   0.148526
C     1.1772970014   -0.5109459997    0.0000000000  -0.092084  -0.161624  -0.135111  -0.156265  -0.132090
C     0.0000740000    0.2835079999    0.0000000000  -0.024131  -0.006790  -0.020363   0.014581  -0.004059
C     0.7564339993   -1.8220309997    0.0000000000  -0.028394  -0.060993  -0.012241   0.060397  -0.254627
Cl   -0.0575439999    2.0144519994    0.0000000000  -0.079980  -0.081854  -0.080162  -0.123611  -0.095326
C    -1.0938499992   -0.5505930020    0.0000000000  -0.037257  -0.089375  -0.018834   0.018737  -0.175736
H    -2.1553240001   -0.3289380000    0.0000000000   0.055603   0.101843   0.119168   0.045143   0.166824
H    -1.1830169996   -2.6599040012    0.0000000000   0.146597   0.274531   0.341082   0.243980   0.304915
N    -0.6106399996   -1.8312699999    0.0000000000  -0.043099  -0.170440  -0.415483  -0.201280  -0.147174
H     1.3274209989   -2.7449679995    0.0000000000   0.052252   0.093470   0.115698   0.032579   0.188749
19
Symbol, X, Y, Z atomic coordinates followed by atomic charges from H, SH, CM5, AVH-B, HLYGAt
H     2.0882699977   -0.9910110019   -1.2916409993   0.031766   0.068666   0.085744  -0.050556   0.124225
C     2.1656640011   -0.8550099980   -0.2043960000  -0.092385  -0.210052  -0.236960   0.141962  -0.442995
C     0.7820120020   -0.6693799983    0.4036929998  -0.012173  -0.030493  -0.061663   0.315071   0.138089
H     2.8286439978   -0.0024280000   -0.0073900000   0.028723   0.062870   0.081502  -0.055141   0.129083
H     2.6441529991   -1.7455810009    0.2244509998   0.033520   0.070935   0.084546  -0.045753   0.112199
H     0.2416669998   -1.6202710012    0.3189860002   0.030630   0.055708   0.097387  -0.073085   0.069681
N    -0.0148690000    0.3593269999   -0.2453780000  -0.096089  -0.110933  -0.379528  -0.418973  -0.239700
H     0.8795789974   -0.4601759999    1.4941180011   0.011983   0.021580   0.075124  -0.102712   0.031153
C    -1.3942240019    0.3710039999    0.2174800002  -0.010926  -0.029592  -0.060731   0.322962  -0.000863
C     0.5808900008    1.6735599983   -0.1319129999  -0.050537  -0.129876  -0.135351   0.407216  -0.536911
H    -1.4428279974    0.5209589999    1.3203699983   0.012954   0.023055   0.075898  -0.102786   0.039620
C    -2.1934989975   -0.8677119973   -0.1646579999  -0.092709  -0.210362  -0.237354   0.143072  -0.352290
H    -1.8800489995    1.2490229982   -0.2317389998   0.030789   0.055044   0.096735  -0.070655   0.107056
H    -1.8642210022   -1.7663849997    0.3731810000   0.028786   0.062701   0.081439  -0.052736   0.093852
H    -2.1079730010   -1.0578970010   -1.2429490017   0.031498   0.068175   0.085453  -0.052012   0.105625
H    -3.2534180006   -0.7147369994    0.0795859998   0.033580   0.071148   0.084571  -0.046525   0.102294
H     0.6930769983    2.0013019986    0.9254129989   0.014448   0.031441   0.073792  -0.108445   0.144181
H    -0.0448960000    2.4110380021   -0.6514249996   0.033254   0.064819   0.094690  -0.072537   0.179141
H     1.5714799998    1.6953309997   -0.6010979979   0.032908   0.065184   0.094712  -0.078349   0.196560
10
Symbol, X, Y, Z atomic coordinates followed by atomic charges from H, SH, CM5, AVH-B, HLYGAt
H     1.9958090016   -0.9316969994    1.0352190005   0.053494   0.106392   0.105425  -0.008045   0.164625
C     1.8009440022   -0.5396179990    0.0251070000  -0.088853  -0.273145  -0.228824   0.080481  -0.595885
H     2.6027670020    0.1558949999   -0.2434229998   0.053930   0.109420   0.108120  -0.002536   0.185307
C     0.4775970000    0.1897679999    0.0353720000   0.158830   0.254845   0.181514   0.327963   0.651324
H     1.7911580022   -1.3958960008   -0.6642409996   0.045403   0.092600   0.097120  -0.024388   0.135682
O     0.3847799999    1.3856209987    0.1261249998  -0.243776  -0.297024  -0.293926  -0.415072  -0.492367
C    -0.7485489995   -0.7059150014   -0.0622749998   0.044972  -0.025737  -0.025687   0.394819   0.014858
F    -1.9088740019   -0.0063260000    0.0739530000  -0.127421  -0.137279  -0.159251  -0.251050  -0.216502
H    -0.6978020004   -1.4841679984    0.7180929989   0.051271   0.084292   0.107315  -0.052431   0.072419
H    -0.7421879984   -1.2100500015   -1.0441099979   0.052157   0.085642   0.108196  -0.049736   0.080538
10
Symbol, X, Y, Z atomic coordinates followed by atomic charges from H, SH, CM5, AVH-B, HLYGAt
C     1.3216960000   -0.0713870001    0.0000030000   0.016295  -0.003854   0.050934   0.206707   0.389567
N     0.6594750021   -1.2227570016    0.0000000000  -0.106458  -0.118550  -0.216441  -0.210014  -0.324313
N    -0.6595319998   -1.2227260024    0.0000000000  -0.106458  -0.118661  -0.216441  -0.210128  -0.324314
C    -1.3217000006   -0.0713250001    0.0000030000   0.016295  -0.003638   0.050934   0.207746   0.389568
C    -0.6907429987    1.1756349987    0.0000040000  -0.023235  -0.076003  -0.069896  -0.051575  -0.210020
C     0.6907980014    1.1756029993    0.0000040000  -0.023235  -0.075422  -0.069896  -0.047505  -0.210019
H     2.4098950005   -0.1584099998    0.0000010000   0.054612   0.092744   0.121122   0.005478  -0.001150
H    -2.4099030016   -0.1582980000    0.0000010000   0.054612   0.092656   0.121122   0.005519  -0.001150
H    -1.2724749998    2.0980269989    0.0000040000   0.058783   0.105583   0.114285   0.047347   0.145916
H     1.2725739982    2.0979680009    0.0000040000   0.058783   0.105141   0.114285   0.046419   0.145916
15
Symbol, X, Y, Z atomic coordinates followed by atomic charges from H, SH, CM5, AVH-B, HLYGAt
H     0.7197180016    2.2434380013    0.0000000000   0.099184   0.201629   0.292626   0.183302   0.352546
C    -0.0052720000    0.7430790005    1.2010270009  -0.022283  -0.063035  -0.068614   0.277182  -0.013845
C    -0.0080840000   -0.7789480025    1.1693939991   0.014649  -0.013465  -0.057023   0.351466  -0.056180
H    -1.0545159979    1.0940299989    1.2853370011   0.018040   0.032994   0.082576  -0.090703   0.082823
H     0.5427450024    1.0897259995    2.0881920023   0.037163   0.066306   0.101238  -0.051852   0.083320
H     1.0340729985   -1.1463949997    1.2214649996   0.025394   0.042364   0.090550  -0.087314   0.106124
O    -0.6286530014   -1.2625289977    0.0000000000  -0.172720  -0.198475  -0.277523  -0.405011  -0.297905
H    -0.5694570001   -1.1870629986    2.0191040015   0.040787   0.069356   0.104345  -0.054496   0.096593
C    -0.0080840000   -0.7789480025   -1.1693939991   0.014649  -0.013774  -0.057023   0.360597  -0.056180
C    -0.0052720000    0.7430790005   -1.2010270009  -0.022283  -0.063274  -0.068614   0.273157  -0.013845
H    -0.5694570001   -1.1870629986   -2.0191040015   0.040787   0.069452   0.104345  -0.056651   0.096593
H     1.0340729985   -1.1463949997   -1.2214649996   0.025394   0.042475   0.090550  -0.089351   0.106124
H     0.5427450024    1.0897259995   -2.0881920023   0.037163   0.066533   0.101238  -0.051411   0.083320
N     0.6501089994    1.2332690011    0.0000000000  -0.153945  -0.272105  -0.521260  -0.468604  -0.652313
H    -1.0545159979    1.0940299989   -1.2853370011   0.018040   0.033038   0.082576  -0.090292   0.082823
14
Symbol, X, Y, Z atomic coordinates followed by atomic charges from H, SH, CM5, AVH-B, HLYGAt
C     1.6922060019   -0.1334340002    0.0000680000   0.155850   0.266915   0.264001   0.590872   0.423655
N     2.3161310007    1.0637370007    0.0000670000  -0.134848  -0.421953  -0.590548  -0.522612  -0.677601
O     2.2598449978   -1.2095060021    0.0000680000  -0.307894  -0.371242  -0.351422  -0.523185  -0.507205
C     0.1823100001   -0.0442410000    0.0000680000   0.041294   0.045083   0.126290  -0.021085   0.206571
N    -0.3847219999    1.1601109978    0.0000680000  -0.123445  -0.164586  -0.320740  -0.287401  -0.303559
C    -1.7108650020    1.2077749999    0.0000680000   0.019898  -0.003908   0.053765   0.157606  -0.073374
C    -2.4762750004    0.0396970000    0.0000680000   0.025629   0.004555   0.058959   0.164887   0.285578
N    -1.9143949977   -1.1650879994    0.0000680000  -0.133212  -0.165935  -0.329397  -0.333061  -0.523435
C    -0.5859240001   -1.2126999993    0.0000680000   0.035745   0.011130   0.072756   0.243594   0.257000
H     1.7720769991    1.9150060016    0.0000660000   0.113261   0.238523   0.313705   0.228762   0.280137
H     3.3236320005    1.0936150022    0.0000670000   0.137465   0.273412   0.331737   0.266885   0.387678
H    -2.1838530019    2.1922380000    0.0000690000   0.054495   0.091842   0.120063   0.010954   0.117367
H    -3.5678519983    0.0868519998    0.0000680000   0.055984   0.093663   0.121450   0.012940   0.058664
H    -0.0951530000   -2.1869629975    0.0000680000   0.059780   0.102505   0.129408   0.010846   0.068523
11
Symbol, X, Y, Z atomic coordinates followed by atomic charges from H, SH, CM5, AVH-B, HLYGAt
H     1.7593959975    1.3347380010    0.8849239994   0.051327   0.103463   0.105445  -0.006767   0.209672
C     1.1275610006    1.4870939992    0.0000000000  -0.086857  -0.278303  -0.224033   0.036731  -0.784532
H     0.7175029981    2.5006780022    0.0000000000   0.051141   0.104473   0.105846  -0.004851   0.215272
C     0.0029500000    0.4895349998    0.0000000000   0.207378   0.345154   0.262965   0.611352   0.903109
H     1.7593959975    1.3347380010   -0.8849239994   0.051327   0.103433   0.105445  -0.006680   0.209672
O    -1.1712849979    0.7582469974    0.0000000000  -0.280642  -0.349233  -0.332671  -0.503532  -0.571086
O     0.4633870002   -0.7684560006    0.0000000000  -0.122553  -0.165645  -0.219286  -0.379423  -0.363510
C    -0.5139870002   -1.8007200015    0.0000000000  -0.004124  -0.103279  -0.119229   0.428727  -0.166990
H    -1.1490829976   -1.7296240008    0.8925740021   0.042951   0.077636   0.104165  -0.061881   0.110434
H     0.0414230000   -2.7430770007    0.0000000000   0.047101   0.084670   0.107188  -0.051794   0.127524
H    -1.1490829976   -1.7296240008   -0.8925740021   0.042951   0.077632   0.104165  -0.061884   0.110434
8
Symbol, X, Y, Z atomic coordinates followed by atomic charges from H, SH, CM5, AVH-B, HLYGAt
C     0.3195440001    0.1621199998    0.0000000000   0.167781   0.234872   0.152132   0.655085   0.449195
C    -0.8994839982    1.0420019993    0.0000000000  -0.095178  -0.276582  -0.236257   0.003246  -0.532523
H    -0.8957030005    1.6782079999    0.8936139994   0.048501   0.099189   0.100389  -0.007177   0.155333
H    -1.8013440020    0.4172230001    0.0000000000   0.049111   0.100725   0.101943  -0.005763   0.186874
H    -0.8957030005    1.6782079999   -0.8936139994   0.048501   0.099189   0.100389  -0.007190   0.155333
F     0.3196519999   -0.6490499994    1.0951030009  -0.132573  -0.157718  -0.162383  -0.279992  -0.234982
H     1.2713220020    0.7143389999    0.0000000000   0.046424   0.058022   0.106170  -0.078228   0.055753
F     0.3196519999   -0.6490499994   -1.0951030009  -0.132573  -0.157702  -0.162383  -0.279987  -0.234982
14
Symbol, X, Y, Z atomic coordinates followed by atomic charges from H, SH, CM5, AVH-B, HLYGAt
N     0.0000000000    1.1556070012   -0.6296390014  -0.107036  -0.257379  -0.472443  -0.468413  -0.550437
C     0.0000000000    0.0000000000    0.1124280001   0.178120   0.316069   0.344336   0.668687   0.673312
O     0.0000000000    0.0000000000    1.3328690000  -0.331637  -0.402581  -0.376286  -0.553888  -0.518775
N     0.0000000000   -1.1556070012   -0.6296390014  -0.107036  -0.257370  -0.472443  -0.468371  -0.550437
C     0.0000000000    2.4619119984   -0.0179740000  -0.039495  -0.134619  -0.123500   0.405051  -0.026754
H     0.0000000000    1.0970480023   -1.6353279979   0.114423   0.224510   0.314694   0.208340   0.306918
C     0.0000000000   -2.4619119984   -0.0179740000  -0.039495  -0.134285  -0.123500   0.404889  -0.026754
H     0.0000000000   -1.0970480023   -1.6353279979   0.114423   0.224302   0.314694   0.208271   0.306918
H     0.0000000000    2.3214909996    1.0681560009   0.045192   0.089774   0.113832  -0.048596   0.076608
H    -0.8943910009    3.0374550022   -0.2988979999   0.031836   0.060477   0.091691  -0.076906   0.058198
H     0.8943910009    3.0374550022   -0.2988979999   0.031836   0.060533   0.091691  -0.076869   0.058198
H     0.0000000000   -2.3214909996    1.0681560009   0.045192   0.089681   0.113832  -0.048527   0.076608
H     0.8943910009   -3.0374550022   -0.2988979999   0.031836   0.060446   0.091691  -0.076827   0.058198
H    -0.8943910009   -3.0374550022   -0.2988979999   0.031836   0.060438   0.091691  -0.076842   0.058198
12
Symbol, X, Y, Z atomic coordinates followed by atomic charges from H, SH, CM5, AVH-B, HLYGAt
O    -2.2708029984    1.0237520002    0.0000000000  -0.165868  -0.358518  -0.363793  -0.447573  -0.580959
C    -1.1385339981    0.3216250001    0.0000000000   0.144942   0.248185   0.245369   0.573956   0.925547
N     1.1962589978   -1.0564959991    0.0000000000  -0.204322  -0.291126  -0.395605  -0.496080  -0.852768
C    -1.1941580002   -1.0796009980    0.0000000000  -0.085810  -0.195693  -0.123613  -0.383076  -0.806604
N     0.0010770000    0.9919990022    0.0000000000  -0.197000  -0.297934  -0.381972  -0.515803  -0.844739
C     1.1136019990    0.2669999999    0.0000000000   0.178512   0.307811   0.357082   0.623072   1.056819
C     0.0338250000   -1.7157150011    0.0000000000   0.039710   0.050653   0.068416   0.338136   0.509961
H    -2.1404660005   -1.6144580002    0.0000000000   0.055442   0.111193   0.114135   0.095728   0.271136
H     0.0945300002   -2.8067019982    0.0000000000   0.056329   0.091714   0.121852  -0.002209   0.074390
O     2.2530450019    0.9564690017    0.0000000000  -0.171310  -0.366946  -0.360696  -0.454592  -0.577378
H    -2.0375840022    1.9604940005    0.0000000000   0.176134   0.352355   0.360075   0.334925   0.419968
H     2.9758090004    0.3182000001    0.0000000000   0.173237   0.348304   0.358758   0.333515   0.404625
9
Symbol, X, Y, Z atomic coordinates followed by atomic charges from H, SH, CM5, AVH-B, HLYGAt
H     1.4840279993   -2.2234310016    0.0000000000   0.056011   0.107610   0.111121   0.064016   0.186804
C     0.8145740009   -1.3683149988    0.0000000000  -0.073281  -0.132031  -0.123921  -0.096751  -0.204687
C     1.1825980024    0.0235490000    0.0000000000  -0.097717  -0.201134  -0.144688  -0.299716  -0.315698
C    -0.5421039994   -1.4128219985    0.0000000000   0.004164  -0.028657  -0.019456   0.115838  -0.158046
H     2.1716460002    0.4682989998    0.0000000000   0.058465   0.117949   0.114144   0.096916   0.189125
C    -0.0042240000    0.6770479983    0.0000000000   0.149536   0.240077   0.199891   0.513409   0.403989
F    -0.2994629998    1.9535099991    0.0000000000  -0.077799  -0.101337  -0.102475  -0.188889  -0.163568
H    -1.2685500024   -2.2165700021    0.0000000000   0.062654   0.109379   0.125071   0.042089   0.192417
O    -1.0491720013   -0.1458670002    0.0000000000  -0.082032  -0.111855  -0.159681  -0.246912  -0.130335
18
Symbol, X, Y, Z atomic coordinates followed by atomic charges from H, SH, CM5, AVH-B, HLYGAt
C    -1.2274710022    0.7905649980   -0.2289019998  -0.052776  -0.104912  -0.162155   0.103069  -0.056218
C    -1.2984319992   -0.6678010022    0.2289470000  -0.052778  -0.104587  -0.162162   0.105335  -0.056980
C    -0.0709399999   -1.4583559988   -0.2289800000  -0.052777  -0.104854  -0.162157   0.100792  -0.051713
C     1.2274710022   -0.7905649980    0.2289019998  -0.052776  -0.105205  -0.162155   0.108031  -0.056218
C     1.2984319992    0.6678010022   -0.2289470000  -0.052778  -0.104648  -0.162162   0.097623  -0.056980
C     0.0709399999    1.4583559988    0.2289800000  -0.052777  -0.104898  -0.162157   0.106795  -0.051713
H    -2.0969090009    1.3505920021    0.1454379999   0.027952   0.055024   0.082038  -0.046617   0.018700
H    -1.2816470008    0.8255059978   -1.3304310012   0.024831   0.049712   0.080123  -0.057160   0.036672
H    -2.2181489981   -1.1406609994   -0.1454680001   0.027957   0.054983   0.082044  -0.046854   0.018811
H    -1.3557790024   -0.6973010019    1.3304750023   0.024826   0.049717   0.080122  -0.057416   0.036899
H    -0.0741459999   -1.5227480017   -1.3305100021   0.024832   0.049910   0.080122  -0.056681   0.036152
H    -0.1211749999   -2.4913119995    0.1453910000   0.027954   0.055029   0.082041  -0.046069   0.017677
H     2.0969090009   -1.3505920021   -0.1454379999   0.027952   0.055037   0.082038  -0.047118   0.018700
H     1.2816470008   -0.8255059978    1.3304310012   0.024831   0.049950   0.080123  -0.057800   0.036672
H     1.3557790024    0.6973010019   -1.3304750023   0.024826   0.049877   0.080122  -0.055942   0.036899
H     2.2181489981    1.1406609994    0.1454680001   0.027957   0.054991   0.082044  -0.045396   0.018811
H     0.1211749999    2.4913119995   -0.1453910000   0.027954   0.055041   0.082041  -0.046932   0.017677
H     0.0741459999    1.5227480017    1.3305100021   0.024832   0.049876   0.080122  -0.057619   0.036152
13
Symbol, X, Y, Z atomic coordinates followed by atomic charges from H, SH, CM5, AVH-B, HLYGAt
C    -1.1169509976   -0.1719499999    0.0000000000  -0.039888  -0.076921  -0.021717   0.001283  -0.359928
C    -0.7121890005   -1.4897010013    0.0000000000  -0.099166  -0.149396  -0.144394  -0.130578  -0.209640
H    -1.3671889997   -2.3565009987    0.0000000000   0.039188   0.081562   0.094532   0.045456   0.169957
C     0.7098540008   -1.4874800022    0.0000000000  -0.096195  -0.144866  -0.141400  -0.126682  -0.219834
H     1.3667570006   -2.3530180020    0.0000000000   0.039550   0.081761   0.094874   0.045294   0.172889
C     1.1121140003   -0.1690239997    0.0000000000  -0.041735  -0.080507  -0.023443   0.004533  -0.351590
H     2.1055429981    0.2705070001    0.0000000000   0.044232   0.082900   0.108522   0.025380   0.193197
H     0.5142740000    2.4543229993    0.8935689982   0.043285   0.080396   0.103922  -0.058723   0.164489
H    -2.1114880024    0.2648870000    0.0000000000   0.043574   0.081097   0.107810   0.027265   0.192872
N    -0.0033820000    0.6233709979    0.0000000000   0.001559   0.020463  -0.284117  -0.094764   0.447647
C     0.0057060000    2.0669770022    0.0000000000  -0.026440  -0.147331  -0.109201   0.367817  -0.536193
H    -1.0263659981    2.4338950021    0.0000000000   0.048746   0.090399   0.110677  -0.047692   0.171644
H     0.5142740000    2.4543229993   -0.8935689982   0.043285   0.080438   0.103922  -0.058594   0.164489
8
Symbol, X, Y, Z atomic coordinates followed by atomic charges from H, SH, CM5, AVH-B, HLYGAt
Cl    1.7972299984    0.0763179998   -0.0000010000  -0.074203  -0.075457  -0.080682  -0.164104  -0.045532
O    -2.0690419998   -0.6137630024   -0.0000020000  -0.167066  -0.374198  -0.371736  -0.478745  -0.588597
H     0.2083629997   -1.4383739975   -0.8871950005   0.063197   0.115393   0.121242   0.018541   0.253534
C    -0.9497359996    0.1271270000    0.0000020000   0.207336   0.330098   0.262426   0.638821   0.867142
H     0.2083639999   -1.4383710023    0.8872020015   0.063197   0.115392   0.121242   0.018541   0.253533
O    -0.9452250020    1.3230029989   -0.0000030000  -0.266613  -0.337975  -0.317517  -0.494160  -0.536793
C     0.2537639998   -0.7946720006    0.0000020000  -0.010885  -0.137814  -0.100254   0.112488  -0.609217
H    -2.8261530020   -0.0137430000   -0.0000060000   0.185030   0.364556   0.365275   0.348613   0.405930
15
Symbol, X, Y, Z atomic coordinates followed by atomic charges from H, SH, CM5, AVH-B, HLYGAt
C    -1.4852979982   -0.0003660000   -0.3507520002  -0.093161  -0.227095  -0.235053   0.216924  -0.629243
C    -0.0051710000   -0.0000080000    0.0182530000   0.084837   0.164968   0.069494   0.069583   0.777719
C     0.6860249975   -1.2593199983   -0.5111689998  -0.098064  -0.231247  -0.240816   0.188100  -0.713669
C     0.6853870003    1.2597030009   -0.5110529999  -0.098065  -0.231274  -0.240817   0.181998  -0.713663
O     0.0244740000   -0.0000650000    1.4439920020  -0.229161  -0.396792  -0.444454  -0.455632  -0.671872
H    -1.9785559988    0.8896520020    0.0613479998   0.034387   0.073888   0.088807  -0.052521   0.178013
H    -1.6134259988   -0.0003360000   -1.4416269980   0.032540   0.069758   0.084942  -0.060348   0.148309
H    -1.9781020018   -0.8906819978    0.0612470000   0.034386   0.073753   0.088806  -0.052610   0.178010
H     1.7479809994   -1.2715629999   -0.2224770000   0.027779   0.059288   0.080986  -0.060337   0.163243
H     0.2051060003   -2.1567819997   -0.1004880001   0.033318   0.072186   0.087286  -0.048975   0.177419
H     0.6369040012   -1.3049420008   -1.6084400011   0.033433   0.072083   0.085549  -0.051401   0.186132
H     0.2040060001    2.1568829985   -0.1002980001   0.033318   0.072055   0.087286  -0.047528   0.177418
H     1.7473330008    1.2724619979   -0.2223490000   0.027779   0.059374   0.080986  -0.058926   0.163242
H     0.6362520020    1.3053959978   -1.6083209997   0.033433   0.072155   0.085548  -0.049939   0.186129
H     0.9362179984    0.0001220000    1.7439480023   0.143235   0.296892   0.321449   0.281605   0.392812
16
Symbol, X, Y, Z atomic coordinates followed by atomic charges from H, SH, CM5, AVH-B, HLYGAt
C    -2.3226370016    1.1029490003   -0.0001410000  -0.032275  -0.069673  -0.087099   0.009183  -0.037296
C    -2.9411889996   -0.1438730001   -0.0000380000  -0.039598  -0.082359  -0.094731  -0.046197  -0.216453
C    -2.1600790013   -1.3008729985    0.0001010000  -0.031516  -0.069145  -0.086286   0.010720  -0.082404
C    -0.7729900015   -1.2223069999    0.0001390000  -0.044925  -0.102138  -0.089278  -0.033919  -0.127356
C    -0.1701470000    0.0389860000    0.0000280000   0.039228   0.060521   0.102170  -0.021347   0.071919
C    -0.9327579997    1.2058319988   -0.0001100000  -0.046469  -0.104752  -0.091756  -0.036614  -0.232780
N     1.2395399997    0.1412940000    0.0000560000   0.110033   0.135126  -0.039527   0.358186   0.401869
O     1.7924280010    1.3733819976    0.0001270000  -0.141439  -0.283239  -0.269250  -0.357732  -0.469687
N     2.0370799979   -0.8822330010   -0.0000190000   0.036697   0.048544  -0.036501  -0.028355  -0.066428
O     3.2287989992   -0.5670220018    0.0000020000  -0.226303  -0.278447  -0.198564  -0.292574  -0.323564
H    -2.9230450000    2.0131850010   -0.0002470000   0.050017   0.090932   0.105457   0.028325   0.121930
H    -4.0288589975   -0.2171570000   -0.0000630000   0.047799   0.088121   0.103146   0.033575   0.151690
H    -2.6360789985   -2.2820169991    0.0001870000   0.050479   0.091654   0.105921   0.028725   0.140167
H    -0.1592520001   -2.1207590019    0.0002530000   0.047663   0.091455   0.111612   0.032145   0.087890
H    -0.4418000001    2.1763990011   -0.0001930000   0.048328   0.094335   0.112799   0.035898   0.177133
H     2.7521750016    1.1327659983    0.0001090000   0.132278   0.289061   0.351912   0.279976   0.403370
16
Symbol, X, Y, Z atomic coordinates followed by atomic charges from H, SH, CM5, AVH-B, HLYGAt
F    -0.4411999999    2.2997199982    0.0000000000  -0.153717  -0.170572  -0.184613  -0.274905  -0.295033
C    -0.5528029995    0.9124750023    0.0000000000   0.073679   0.105060   0.030666   0.434807   0.320703
H    -1.6330719991    0.6877069979    0.0000000000   0.033202   0.048056   0.093456  -0.079682   0.055958
C     0.0959670000    0.3424029999    1.2482100021  -0.064572  -0.165817  -0.166883  -0.116016  -0.288646
C     0.0959670000    0.3424029999   -1.2482100021  -0.064572  -0.165959  -0.166883  -0.117082  -0.288646
H    -0.9466400007   -1.5629999985    1.2168760013   0.025684   0.041280   0.088254  -0.101774   0.049082
H     0.6432290024   -1.6168410016    2.0163940003   0.044442   0.074802   0.107799  -0.060688   0.092518
H    -0.9466400007   -1.5629999985   -1.2168760013   0.025684   0.041272   0.088254  -0.101742   0.049082
H    -0.4379129998    0.6784470000    2.1479230017   0.040713   0.080047   0.096091   0.000801   0.089676
H     1.1323410002    0.7056290023    1.3079390012   0.038616   0.077086   0.096940  -0.006187   0.137436
C     0.0939909999   -1.1844709986    1.1718970020   0.022485  -0.001113  -0.054347   0.456288   0.064736
H    -0.4379129998    0.6784470000   -2.1479230017   0.040713   0.080027   0.096091   0.001106   0.089676
C     0.0939909999   -1.1844709986   -1.1718970020   0.022485  -0.001139  -0.054347   0.456361   0.064736
H     1.1323410002    0.7056290023   -1.3079390012   0.038616   0.077258   0.096940  -0.005895   0.137436
O     0.7182379988   -1.6487629977    0.0000000000  -0.167918  -0.195146  -0.275219  -0.424820  -0.371230
H     0.6432290024   -1.6168410016   -2.0163940003   0.044442   0.074841   0.107799  -0.060589   0.092518
13
Symbol, X, Y, Z atomic coordinates followed by atomic charges from H, SH, CM5, AVH-B, HLYGAt
O    -2.3458359983   -1.0187130002    0.0003050000  -0.180890  -0.366430  -0.388274  -0.440660  -0.562214
H     2.2112089977    1.5796059975   -0.0002730000   0.050457   0.099293   0.106997   0.068335   0.192505
C     1.2483349991    1.0712240010   -0.0001500000  -0.072717  -0.153937  -0.122906  -0.246026  -0.399664
F     2.3397829994   -1.0098279984   -0.0003020000  -0.104990  -0.123570  -0.132734  -0.198012  -0.210194
H    -0.0063700000   -2.1128549994   -0.0000010000   0.057826   0.114260   0.117379   0.087616   0.223663
C    -1.1956769981   -0.3036580002    0.0001610000   0.078712   0.144867   0.092907   0.381837   0.490835
C     1.1923700004   -0.3172379998   -0.0001490000   0.096128   0.166642   0.110668   0.387219   0.438032
C     0.0420530000    1.7670840004    0.0000100000  -0.032172  -0.057399  -0.086977   0.125987   0.010128
C    -1.1782309992    1.0945280023    0.0001650000  -0.078847  -0.153726  -0.129869  -0.260177  -0.478283
C     0.0005330000   -1.0240989976    0.0000030000  -0.073465  -0.178473  -0.118046  -0.301085  -0.442297
H    -2.1155069975    1.6548090008    0.0002880000   0.040017   0.076136   0.097477   0.049714   0.188244
H     0.0514440000    2.8576140001    0.0000140000   0.048597   0.088257   0.104047   0.014059   0.139244
H    -3.1085159979   -0.4362149998    0.0004220000   0.171341   0.344077   0.349360   0.331190   0.410001
11
Symbol, X, Y, Z atomic coordinates followed by atomic charges from H, SH, CM5, AVH-B, HLYGAt
C     0.7939949977    0.5091630001    0.2975670001   0.049166   0.028548  -0.033229   0.482527   0.016791
C    -0.5957930016    0.6451769990   -0.2869319998  -0.053021  -0.126890  -0.162591  -0.043653   0.112096
C    -1.5414269994   -0.4803639999    0.1188119998  -0.089239  -0.202847  -0.237130   0.224060  -0.284401
H    -0.5106949999    0.6987339979   -1.3828970008   0.035841   0.069713   0.090746  -0.020854   0.026822
H    -0.9949220025    1.6176800014    0.0433040000   0.037279   0.071634   0.091352  -0.018583  -0.005904
F     1.4085990003   -0.6457549981   -0.1727679999  -0.153220  -0.166607  -0.186318  -0.285847  -0.235271
H     0.7630210014    0.4346000001    1.3960130019   0.036932   0.058266   0.092389  -0.082348   0.075563
H     1.4342740012    1.3573100020    0.0147440000   0.038561   0.060529   0.093539  -0.076100   0.059891
H    -1.6649839990   -0.5175919998    1.2113109991   0.030466   0.065121   0.081466  -0.064800   0.076476
H    -1.1552780012   -1.4541700007   -0.2099549997   0.033743   0.072092   0.085761  -0.058896   0.086933
H    -2.5343109976   -0.3397009999   -0.3285709997   0.033490   0.070439   0.084019  -0.055510   0.071004
17
Symbol, X, Y, Z atomic coordinates followed by atomic charges from H, SH, CM5, AVH-B, HLYGAt
F    -0.4705849998    2.3034869991    0.0000000000  -0.155816  -0.172776  -0.186681  -0.278061  -0.288610
C    -0.5566470010    0.9129510025    0.0000000000   0.073842   0.106208   0.031822   0.432536   0.319063
H    -1.6331660021    0.6699060004    0.0000000000   0.031153   0.044759   0.091641  -0.083098   0.072712
C     0.0954020001    0.3608150002    1.2552960025  -0.062056  -0.153517  -0.161485  -0.087921  -0.345680
C     0.0954020001    0.3608150002   -1.2552960025  -0.062056  -0.153327  -0.161485  -0.087799  -0.345680
H    -0.9579079986   -1.5260419975    1.2793870014   0.015002   0.025907   0.077897  -0.113723   0.049585
H     0.6275170008   -1.5652559974    2.0824900014   0.037176   0.064866   0.101297  -0.067308   0.095313
H     0.8629490003   -2.6312229985    0.0000000000   0.099425   0.201794   0.292937   0.179605   0.348866
H    -0.4381549999    0.7219699999    2.1451040006   0.037214   0.073604   0.092809  -0.008163   0.109020
H     1.1323329990    0.7238539978    1.3031920012   0.035644   0.071902   0.094856  -0.014088   0.163958
C     0.0921799999   -1.1669039980    1.2108500011  -0.011951  -0.037242  -0.060335   0.413318   0.037503
H    -0.4381549999    0.7219699999   -2.1451040006   0.037214   0.073594   0.092809  -0.008314   0.109020
C     0.0921799999   -1.1669039980   -1.2108500011  -0.011951  -0.037188  -0.060335   0.414802   0.037503
H     1.1323329990    0.7238539978   -1.3031920012   0.035644   0.071778   0.094856  -0.014259   0.163958
N     0.7494420020   -1.6251940003    0.0000000000  -0.150648  -0.271040  -0.519800  -0.495711  -0.671430
H     0.6275170008   -1.5652559974   -2.0824900014   0.037176   0.064831   0.101297  -0.067676   0.095313
H    -0.9579079986   -1.5260419975   -1.2793870014   0.015002   0.025860   0.077897  -0.114126   0.049585
13
Symbol, X, Y, Z atomic coordinates followed by atomic charges from H, SH, CM5, AVH-B, HLYGAt
C    -1.1809150019   -0.7223380003    0.0587680001  -0.049359  -0.128846  -0.133338   0.405723  -0.595062
N     0.0000000000    0.0000010000   -0.3558509999  -0.098918  -0.103852  -0.390441  -0.442888   0.015273
C    -0.0351150000    1.3839019982    0.0586679999  -0.049360  -0.128780  -0.133336   0.405523  -0.611855
H    -1.1531700026   -1.7474999985   -0.3352190001   0.033881   0.065968   0.094950  -0.073914   0.204457
H    -1.2798349975   -0.7827700008    1.1657839998   0.014578   0.031608   0.073584  -0.110317   0.181945
H    -2.0809490004   -0.2308489999   -0.3353489999   0.033881   0.065892   0.094949  -0.073871   0.204880
C     1.2160280001   -0.6615389996    0.0587250002  -0.049360  -0.129010  -0.133336   0.405943  -0.594732
H     0.8406040004    1.9175280020   -0.3354289999   0.033880   0.065901   0.094950  -0.073791   0.209165
H    -0.9367550022    1.8724210000   -0.3354640002   0.033879   0.065844   0.094950  -0.073829   0.208897
H    -0.0380670000    1.4998920018    1.1656790004   0.014583   0.031673   0.073585  -0.110253   0.186017
H     2.0899680004   -0.1249630002   -0.3353159999   0.033880   0.065957   0.094949  -0.074003   0.204715
H     1.3178700011   -0.7170019996    1.1657379984   0.014578   0.031668   0.073584  -0.110331   0.181937
H     1.2403570017   -1.6867439988   -0.3353790000   0.033879   0.065998   0.094949  -0.073973   0.204364
16
Symbol, X, Y, Z atomic coordinates followed by atomic charges from H, SH, CM5, AVH-B, HLYGAt
H    -0.5711140021   -1.2375689998    2.0148680014   0.038693   0.065323   0.101965  -0.067618   0.074139
C    -0.0227570000   -0.7942680002    1.1742099985   0.017811  -0.000998  -0.059389   0.434744   0.052841
C    -0.0224920000    0.7290940005    1.2526379983  -0.058688  -0.129781  -0.165558  -0.020091  -0.122997
O    -0.6466009990   -1.2593470022    0.0000000000  -0.172433  -0.199309  -0.279652  -0.422643  -0.378248
H     1.0200619999   -1.1694380001    1.2137440024   0.022075   0.035429   0.084610  -0.104022   0.048547
H     0.5076609999    1.0503269993    2.1612780004   0.033406   0.065375   0.087777  -0.023783   0.029838
H    -1.0632199999    1.0787209974    1.3381149983   0.030523   0.061035   0.087462  -0.032455   0.074151
C     0.6228900022    1.3241100006    0.0000000000  -0.052508  -0.106494  -0.161048   0.160773   0.031285
H     0.5373310009    2.4198099981    0.0000000000   0.031434   0.061265   0.085572  -0.046831   0.006646
C    -0.0224920000    0.7290940005   -1.2526379983  -0.058688  -0.130355  -0.165558  -0.021838  -0.122997
H     1.7009570001    1.0896600006    0.0000000000   0.025862   0.051714   0.081390  -0.063445   0.027276
H    -1.0632199999    1.0787209974   -1.3381149983   0.030523   0.061315   0.087462  -0.031876   0.074151
C    -0.0227570000   -0.7942680002   -1.1742099985   0.017811  -0.001076  -0.059389   0.432388   0.052841
H     0.5076609999    1.0503269993   -2.1612780004   0.033406   0.065681   0.087777  -0.023131   0.029838
H     1.0200619999   -1.1694380001   -1.2137440024   0.022075   0.035677   0.084610  -0.103330   0.048547
H    -0.5711140021   -1.2375689998   -2.0148680014   0.038693   0.065190   0.101965  -0.066848   0.074139
11
Symbol, X, Y, Z atomic coordinates followed by atomic charges from H, SH, CM5, AVH-B, HLYGAt
H     0.7713530024   -2.1550490026   -0.0000070000   0.058874   0.112514   0.115540   0.082375   0.247685
H    -1.7409170023    2.0633510005    0.0000120000   0.050472   0.083295   0.115930  -0.006388   0.036658
C    -1.1554359976    1.1403400006    0.0000080000   0.027108   0.029043   0.053959   0.281953   0.541060
H     0.7713530024    2.1550490026    0.0000020000   0.058874   0.112426   0.115540   0.082278   0.247685
F     2.2559389980    0.0000000000   -0.0000090000  -0.094353  -0.113644  -0.122212  -0.193133  -0.243104
C     0.2371029998   -1.2058830009   -0.0000030000  -0.060004  -0.153505  -0.104324  -0.272104  -0.732146
C     0.2371029998    1.2058830009    0.0000020000  -0.060004  -0.153400  -0.104324  -0.272201  -0.732147
N    -1.8418290009    0.0000000000    0.0000080000  -0.166926  -0.208610  -0.365550  -0.391261  -0.724667
C    -1.1554359976   -1.1403410007    0.0000010000   0.027108   0.029022   0.053959   0.281663   0.541060
C     0.9220340013    0.0000000000   -0.0000030000   0.108370   0.179529   0.125567   0.413197   0.781257
H    -1.7409170023   -2.0633510005    0.0000020000   0.050473   0.083321   0.115930  -0.006388   0.036659
8
Symbol, X, Y, Z atomic coordinates followed by atomic charges from H, SH, CM5, AVH-B, HLYGAt
O    -0.0053240000    0.8600710012    0.0000000000  -0.116597  -0.154813  -0.218946  -0.380684  -0.346008
C     0.9249689980   -0.0886189998    0.0000000000   0.181452   0.252617   0.204689   0.677098   0.635765
O     0.7138790021   -1.2693760004    0.0000000000  -0.268346  -0.327423  -0.325983  -0.505754  -0.512081
H     1.9297150008    0.3721630001    0.0000000000   0.061181   0.079287   0.131902  -0.051691  -0.002482
C    -1.3610330018    0.4194760001    0.0000000000  -0.000321  -0.105050  -0.116032   0.422458  -0.112886
H    -1.5660410000   -0.1842270001    0.8935210018   0.046112   0.082825   0.107003  -0.057830   0.112031
H    -1.5660410000   -0.1842270001   -0.8935210018   0.046112   0.082673   0.107003  -0.057760   0.112031
H    -1.9729870014    1.3256279983    0.0000000000   0.050397   0.089875   0.110362  -0.045846   0.113630
15
Symbol, X, Y, Z atomic coordinates followed by atomic charges from H, SH, CM5, AVH-B, HLYGAt
H     2.4585929990   -2.2176769985    0.0000000000   0.040236   0.076979   0.095679   0.026582   0.151066
N    -1.1292279988    1.5331500011    0.0000000000  -0.057276  -0.211963  -0.411383  -0.322421  -0.658895
H    -1.1594440017    2.5401050012    0.0000000000   0.147813   0.279162   0.342925   0.260771   0.407085
C     1.7436170020   -1.3939169998    0.0000000000  -0.053736  -0.092513  -0.108272  -0.058786  -0.162159
N    -1.8884970015   -0.5680090019    0.0000000000  -0.207342  -0.257724  -0.386211  -0.402253  -0.689448
C    -0.0032870000    0.7351429987    0.0000000000   0.019902   0.044645   0.088008   0.133145   0.315562
C    -2.2108209997    0.6914039992    0.0000000000   0.056532   0.062043   0.160123   0.336701   0.361638
C    -0.5042749997   -0.5838520014    0.0000000000   0.010597   0.040897   0.082751   0.069555   0.531615
C     1.3646840018    1.0185410017    0.0000000000  -0.061093  -0.115916  -0.108385  -0.109742  -0.379018
H    -3.2279129978    1.0800419984    0.0000000000   0.062857   0.099271   0.134865   0.005030   0.104814
H     0.0026760000   -2.6882330004    0.0000000000   0.049918   0.093300   0.107454   0.035858   0.200334
C     0.3836439998   -1.6669720014    0.0000000000  -0.041468  -0.092583  -0.088472  -0.022581  -0.373696
C     2.2270100017   -0.0695100000    0.0000000000  -0.049411  -0.082942  -0.104004  -0.009327  -0.161074
H     1.7425769994    2.0415640022    0.0000000000   0.041783   0.080471   0.098800   0.035789   0.198403
H     3.3040919997    0.1036879998    0.0000000000   0.040693   0.076876   0.096112   0.021682   0.153773
4
Symbol, X, Y, Z atomic coordinates followed by atomic charges from H, SH, CM5, AVH-B, HLYGAt
N    -0.0000080000    0.0000100000   -0.1150020001  -0.272877  -0.583120  -0.819847  -0.583153  -0.907515
H     0.8446290016   -0.4253239999    0.2560230002   0.090958   0.194314   0.273281   0.194301   0.302439
H    -0.7906819991   -0.5187920002    0.2560180000   0.090960   0.194536   0.273283   0.194433   0.302598
H    -0.0539460003    0.9441729977    0.2559820001   0.090960   0.194271   0.273282   0.194421   0.302479
12
Symbol, X, Y, Z atomic coordinates followed by atomic charges from H, SH, CM5, AVH-B, HLYGAt
H     1.8757319983   -0.9359850017    0.8963099985   0.026496   0.047998   0.084371  -0.090309   0.086331
C     1.3063909991   -1.2457630020    0.0000000000  -0.014079  -0.082774  -0.129009   0.446945  -0.224038
H     1.8757319983   -0.9359850017   -0.8963099985   0.026496   0.047981   0.084371  -0.090329   0.086331
O     0.0180460000   -0.7050119976    0.0000000000  -0.164449  -0.186710  -0.279898  -0.414277  -0.319691
H     1.2123579974   -2.3381719988    0.0000000000   0.042016   0.075977   0.101474  -0.059516   0.141455
C    -0.0010270000    0.6985879979    0.0000000000   0.020512   0.018224  -0.059068   0.420224   0.345883
H     0.5353099991    1.0828159982   -0.8900410002   0.023523   0.037449   0.085158  -0.099082  -0.004531
H     0.5353099991    1.0828159982    0.8900410002   0.023523   0.037420   0.085158  -0.099054  -0.004531
C    -1.4362910025    1.1779999975    0.0000000000  -0.091217  -0.222077  -0.236900   0.105279  -0.506168
H    -1.4695249983    2.2758690024    0.0000000000   0.036082   0.075661   0.087007  -0.039434   0.122056
H    -1.9638819994    0.8122030013    0.8906089978   0.035535   0.075419   0.088670  -0.040186   0.138452
H    -1.9638819994    0.8122030013   -0.8906089978   0.035535   0.075406   0.088670  -0.040288   0.138452
20
Symbol, X, Y, Z atomic coordinates followed by atomic charges from H, SH, CM5, AVH-B, HLYGAt
N     0.0000010000   -1.5688670021    0.0000000000  -0.046986  -0.054328  -0.330222  -0.348741   0.035187
C     0.0000120000   -0.1888799998    0.0000000000   0.044122   0.088867   0.101759   0.251941   0.316330
C     0.0000410000    2.6489009993    0.0000000000  -0.070695  -0.113880  -0.125924  -0.125645  -0.245283
C     0.0000170000    0.5441220009    1.2072080024  -0.075174  -0.131005  -0.122781  -0.186803  -0.348227
C     0.0000170000    0.5441220009   -1.2072080024  -0.075174  -0.131084  -0.122781  -0.185875  -0.348227
C     0.0000340000    1.9348889992   -1.1965320003  -0.044481  -0.070369  -0.099481   0.058402  -0.051978
C     0.0000340000    1.9348889992    1.1965320003  -0.044481  -0.070252  -0.099481   0.059478  -0.051978
H     0.0000100000    0.0298950000    2.1661060016   0.031402   0.066012   0.091566   0.024213   0.155092
H     0.0000100000    0.0298950000   -2.1661060016   0.031402   0.066124   0.091566   0.024041   0.155092
H     0.0000380000    2.4680590003   -2.1491139997   0.039415   0.073867   0.094822   0.009704   0.121172
H     0.0000380000    2.4680590003    2.1491139997   0.039415   0.073798   0.094822   0.009448   0.121172
H     0.0000510000    3.7388650016    0.0000000000   0.035272   0.070531   0.090643   0.028119   0.137538
C    -0.0000650000   -2.2878499978    1.2496759976  -0.036555  -0.132488  -0.119984   0.404155  -0.339022
C    -0.0000650000   -2.2878499978   -1.2496759976  -0.036555  -0.132669  -0.119984   0.404244  -0.339022
H     0.8917260009   -2.0576459992   -1.8574320026   0.031785   0.060612   0.092274  -0.075367   0.101533
H    -0.8918989996   -2.0576200008   -1.8573619977   0.031783   0.060605   0.092272  -0.075351   0.101538
H    -0.0000700000   -3.3638390014   -1.0510519985   0.040960   0.077273   0.103192  -0.062694   0.138006
H    -0.0000700000   -3.3638390014    1.0510519985   0.040960   0.077199   0.103192  -0.062615   0.138006
H    -0.8918989996   -2.0576200008    1.8573619977   0.031783   0.060569   0.092272  -0.075336   0.101538
H     0.8917260009   -2.0576459992    1.8574320026   0.031785   0.060599   0.092274  -0.075335   0.101533
10
Symbol, X, Y, Z atomic coordinates followed by atomic charges from H, SH, CM5, AVH-B, HLYGAt
H     2.5027180015   -0.2717230001    0.8942930026   0.037786   0.070164   0.097785  -0.066650   0.094843
C     1.9294620011    0.0107890000    0.0000300000  -0.032701  -0.137429  -0.117031   0.398632  -0.222180
H     1.7891559978    1.0969740022    0.0000240000   0.048707   0.094324   0.116037  -0.044176   0.143548
N     0.6261509986   -0.6086589983    0.0000300000  -0.089490  -0.252669  -0.458199  -0.476450  -0.315444
H     2.5027210019   -0.2717330000   -0.8942289986   0.037786   0.070118   0.097785  -0.066645   0.094843
C    -0.5228869999    0.1044289998    0.0000310000   0.212051   0.357908   0.339920   0.756845   0.631981
H     0.5452890007   -1.6137020017    0.0000330000   0.129446   0.254674   0.330054   0.236684   0.301936
O    -0.6170639993    1.3116640013    0.0000300000  -0.328458  -0.409510  -0.375889  -0.577434  -0.553308
O    -1.5980549989   -0.7155980025    0.0000340000  -0.192251  -0.403311  -0.390399  -0.500131  -0.616559
H    -2.3783910014   -0.1510950001    0.0000350000   0.177124   0.355731   0.359932   0.339327   0.440339
22
Symbol, X, Y, Z atomic coordinates followed by atomic charges from H, SH, CM5, AVH-B, HLYGAt
H     0.2607030001   -1.5895089986   -1.2119209975   0.043189   0.080654   0.102075   0.000765   0.096505
C     0.9395039984   -0.9113730014   -0.6917380000  -0.036751  -0.078529  -0.088611   0.059414  -0.124566
C     2.6718909974    0.8363010012    0.6143629994  -0.038157  -0.077563  -0.093126  -0.036664  -0.091795
C     0.4373469998    0.2524019998   -0.1015760001  -0.008737  -0.020968  -0.012581  -0.185913   0.125226
C     2.3009440010   -1.1990200011   -0.6294679978  -0.041120  -0.079801  -0.096181  -0.048024  -0.143478
C     3.1679559974   -0.3289460001    0.0300660000  -0.037631  -0.075098  -0.092766  -0.005318  -0.151343
C     1.3134490007    1.1324029986    0.5389330003  -0.030560  -0.073744  -0.081715   0.047694  -0.227833
C    -1.0110110005    0.6439759996   -0.2309549999   0.158397   0.259208   0.262308   0.613997   0.344275
H     2.6867899977   -2.1033830025   -1.1020420011   0.044337   0.082194   0.099710   0.027070   0.134899
H     4.2336719992   -0.5558750003    0.0824849998   0.045026   0.082902   0.100308   0.023571   0.135905
H     0.9191399999    2.0552659983    0.9655349980   0.048785   0.090358   0.107360   0.019526   0.163254
H     3.3490950025    1.5222879985    1.1250579977   0.045775   0.084307   0.101116   0.027546   0.126529
O    -1.3053289987    1.7535919977   -0.6478640021  -0.307138  -0.368561  -0.352467  -0.532010  -0.512485
N    -1.9564209976   -0.2864979999    0.0945990002  -0.035454  -0.055684  -0.315701  -0.387670   0.146433
C    -3.3484710020    0.0256430000   -0.1522949999  -0.039277  -0.147202  -0.122136   0.389527  -0.486573
C    -1.7177729977   -1.4697210002    0.8942540022  -0.037994  -0.142515  -0.121983   0.396057  -0.414425
H    -3.8467950013    0.3808329999    0.7643929992   0.035333   0.067312   0.096008  -0.071305   0.155821
H    -3.8676770008   -0.8778460002   -0.5020779999   0.035870   0.068898   0.097449  -0.073268   0.145987
H    -3.4174869976    0.8091690008   -0.9117330006   0.044199   0.087779   0.112478  -0.051644   0.181396
H    -0.6865940006   -1.4990570025    1.2544749999   0.040000   0.079364   0.104882  -0.071946   0.118902
H    -1.9194419989   -2.3876940003    0.3202080000   0.034170   0.064971   0.094495  -0.072101   0.133433
H    -2.3859420004   -1.4622219982    1.7691589995   0.037760   0.071740   0.099087  -0.069282   0.143932
18
Symbol, X, Y, Z atomic coordinates followed by atomic charges from H, SH, CM5, AVH-B, HLYGAt
C     0.6106570021    2.2873839990    0.0000000000  -0.048522  -0.131420  -0.132172   0.407058  -0.658965
O    -0.7338959979   -1.6853499978    0.0000000000  -0.171284  -0.196918  -0.276170  -0.408632  -0.308906
C    -0.1028550002    0.3227140002    1.1926449979  -0.020912  -0.064483  -0.064147   0.227224  -0.223308
C    -0.1028550002    0.3227140002   -1.1926449979  -0.020912  -0.064440  -0.064147   0.226758  -0.223308
N     0.5381020015    0.8453920011    0.0000000000  -0.099147  -0.111409  -0.381483  -0.404874  -0.101877
C    -0.1100859999   -1.1980000014   -1.1637910020   0.015305  -0.014585  -0.056346   0.376464  -0.027048
C    -0.1100859999   -1.1980000014    1.1637910020   0.015305  -0.014520  -0.056346   0.375958  -0.027048
H    -1.1505030023    0.6875349994    1.2804490018   0.017384   0.032640   0.082887  -0.084161   0.140645
H    -1.1505030023    0.6875349994   -1.2804490018   0.017384   0.032650   0.082887  -0.084221   0.140645
H    -0.6698020012   -1.5965290000    2.0188619982   0.041853   0.071351   0.105470  -0.056362   0.108461
H     0.9304589999   -1.5694070010   -1.2175790026   0.025790   0.042946   0.090881  -0.091111   0.090701
H     0.9304589999   -1.5694070010    1.2175790026   0.025790   0.042906   0.090881  -0.090891   0.090701
H    -0.6698020012   -1.5965290000   -2.0188619982   0.041853   0.071347   0.105470  -0.056409   0.108461
H     0.4456979998    0.6679559983    2.0811479975   0.036732   0.066698   0.101914  -0.046424   0.134774
H     0.4456979998    0.6679559983   -2.0811479975   0.036732   0.066684   0.101914  -0.046201   0.134774
H    -0.3934399997    2.7644959986    0.0000000000   0.017045   0.035690   0.076363  -0.102840   0.170497
H     1.1536529985    2.6353400025   -0.8892850017   0.034825   0.067454   0.096062  -0.070642   0.225401
H     1.1536529985    2.6353400025    0.8892850017   0.034825   0.067461   0.096062  -0.070644   0.225401
13
Symbol, X, Y, Z atomic coordinates followed by atomic charges from H, SH, CM5, AVH-B, HLYGAt
O     0.0527860000    2.3119750016    0.0000000000  -0.209208  -0.391858  -0.415084  -0.454542  -0.559209
C     0.0046580000    0.9364650025    0.0000000000   0.065715   0.119460   0.078053   0.287185   0.528933
C     0.0081570000   -1.8537800025    0.0000000000  -0.049698  -0.090209  -0.104892  -0.070160  -0.264016
C     0.0114520000    0.2406199999    1.2092730001  -0.056146  -0.119549  -0.106495  -0.148832  -0.337616
C     0.0114520000    0.2406199999   -1.2092730001  -0.056146  -0.119544  -0.106495  -0.148109  -0.337616
C     0.0106780000   -1.1530830005   -1.2056519991  -0.040138  -0.073085  -0.095114   0.028747  -0.052191
C     0.0106780000   -1.1530830005    1.2056519991  -0.040138  -0.073113  -0.095114   0.029215  -0.052191
H     0.0255170000    0.8038229986    2.1432949977   0.044837   0.086180   0.102948   0.044776   0.153430
H     0.0255170000    0.8038229986   -2.1432949977   0.044837   0.086210   0.102948   0.044559   0.153430
H     0.0157390000   -1.6946659986   -2.1528170019   0.044103   0.081484   0.099422   0.019287   0.132789
H     0.0157390000   -1.6946659986    2.1528170019   0.044103   0.081559   0.099422   0.019215   0.132789
H     0.0092490000   -2.9443790015    0.0000000000   0.042029   0.079418   0.097351   0.029055   0.157183
H    -0.8341870017    2.6789799982    0.0000000000   0.165839   0.333036   0.343082   0.319594   0.344284
10
Symbol, X, Y, Z atomic coordinates followed by atomic charges from H, SH, CM5, AVH-B, HLYGAt
Cl   -2.2158969998    0.0000000000    0.0000090000  -0.041020  -0.045466  -0.042084  -0.077242   0.000619
H    -0.2671470000    2.1580430026    0.0000180000   0.060561   0.101012   0.126339   0.006916  -0.003591
C     0.2415080000    1.1905299983    0.0000170000   0.037937   0.021271   0.070822   0.293731   0.767102
H    -0.2671459998   -2.1580430026    0.0000070000   0.060561   0.101124   0.126339   0.007061  -0.003591
H     3.2649759982    0.0000000000    0.0000180000   0.056773   0.087092   0.132441  -0.017499   0.018750
N     1.5695369987   -1.1849069983    0.0000130000  -0.153563  -0.200840  -0.346843  -0.405010  -0.823255
N     1.5695369987    1.1849069983    0.0000180000  -0.153563  -0.200826  -0.346843  -0.405170  -0.823255
C    -0.4806339999    0.0000000000    0.0000130000   0.011956   0.008518   0.018040  -0.124170  -0.668967
C     0.2415080000   -1.1905299983    0.0000110000   0.037937   0.021131   0.070822   0.293277   0.767102
C     2.1721680018    0.0000000000    0.0000160000   0.082424   0.106987   0.190983   0.428108   0.769086
13
Symbol, X, Y, Z atomic coordinates followed by atomic charges from H, SH, CM5, AVH-B, HLYGAt
O     2.7387280001    0.0901609999    0.0001480000  -0.187549  -0.370651  -0.394866  -0.430446  -0.564030
F    -2.7315470018   -0.0172180000   -0.0000860000  -0.113703  -0.130509  -0.141114  -0.190746  -0.216751
C    -1.3872599981   -0.0075220000   -0.0000210000   0.077182   0.132458   0.091397   0.243669   0.348904
H    -1.2555339999   -2.1509160015   -0.0000030000   0.054274   0.102688   0.110791   0.051659   0.178062
H     1.2422009991   -2.1406039993    0.0000910000   0.043487   0.080015   0.100921   0.037719   0.177863
C     1.3820769983    0.0172630000    0.0000950000   0.066413   0.121292   0.080207   0.253488   0.361023
C    -0.7020529974   -1.2122060018    0.0000160000  -0.052311  -0.118733  -0.102400  -0.082742  -0.229585
C    -0.7188609991    1.2098580002   -0.0000050000  -0.049235  -0.116493  -0.099235  -0.094003  -0.294538
C     0.6718900022    1.2203110017    0.0000600000  -0.051167  -0.114826  -0.100719  -0.088715  -0.207369
C     0.6920830024   -1.1968610004    0.0000680000  -0.063421  -0.128023  -0.114176  -0.130494  -0.334666
H     1.2244420024    2.1595640007    0.0000810000   0.052183   0.099360   0.110776   0.048494   0.183771
H    -1.2890960009    2.1386020002   -0.0000380000   0.055069   0.103543   0.111597   0.053831   0.187987
H     3.1280179985   -0.7866430011    0.0002640000   0.168767   0.339867   0.346854   0.328273   0.409329
11
Symbol, X, Y, Z atomic coordinates followed by atomic charges from H, SH, CM5, AVH-B, HLYGAt
H    -3.3224680011   -0.1261139997    0.0000270000   0.052171   0.097086   0.107827   0.055803   0.219503
Cl    2.2251179974   -0.0150150000   -0.0000240000  -0.069159  -0.080636  -0.062197  -0.158249  -0.128015
C     0.4722960001   -0.0160380000    0.0000020000   0.083114   0.143949   0.160938   0.337783   0.520822
H    -2.1543530022    2.1062550007    0.0000220000   0.056939   0.100393   0.112194   0.025286   0.073898
H    -1.9197239974   -2.2001119981    0.0000100000   0.052046   0.085988   0.117532  -0.003774   0.013157
C    -2.2348640022   -0.0584370002    0.0000190000  -0.045659  -0.106824  -0.094767  -0.165834  -0.639240
N    -0.1223600002   -1.1853730024    0.0000000000  -0.152679  -0.201282  -0.348332  -0.368520  -0.636388
C    -0.1960229999    1.2105870000    0.0000050000  -0.046100  -0.119521  -0.092430  -0.152977  -0.468361
C    -1.5846579994    1.1758839977    0.0000160000  -0.014664  -0.048400  -0.067300   0.105268   0.317049
C    -1.4562319979   -1.2108840007    0.0000080000   0.029467   0.025926   0.055367   0.265094   0.560675
H     0.3575009999    2.1479659973    0.0000000000   0.054519   0.103318   0.111190   0.060117   0.166901
17
Symbol, X, Y, Z atomic coordinates followed by atomic charges from H, SH, CM5, AVH-B, HLYGAt
O    -3.1147269984   -0.8567110011    0.0000480000  -0.217195  -0.270574  -0.176754  -0.397120  -0.430735
N    -2.3790259982    0.1119210002    0.0000260000   0.247302   0.369334   0.075731   0.694630   0.674340
O    -2.7707679974    1.2654609993    0.0000320000  -0.222486  -0.276169  -0.182737  -0.402464  -0.425355
C    -0.9427499979   -0.1191619998   -0.0000050000  -0.001608  -0.008056   0.052957  -0.167857   0.171343
C    -0.4524880002   -1.4188859989   -0.0000110000  -0.038749  -0.085733  -0.084470   0.065337  -0.321215
C     0.9211469997   -1.6205059982   -0.0000390000  -0.063200  -0.127437  -0.109579  -0.155821  -0.299217
C     1.8143169983   -0.5387479999   -0.0000470000   0.051532   0.094345   0.111998   0.226917   0.454293
N     3.1671959984   -0.6964480000   -0.0003240000  -0.144126  -0.417722  -0.606691  -0.484443  -0.991458
C     1.2804820013    0.7740140018   -0.0000370000   0.054379   0.085613   0.076753   0.146930   0.313026
O     2.2019379982    1.7763869993   -0.0000040000  -0.179981  -0.374016  -0.388958  -0.424804  -0.603869
C    -0.0831139999    0.9837110022   -0.0000070000  -0.058922  -0.134697  -0.100199  -0.059519  -0.495369
H    -1.1477689977   -2.2554880014   -0.0000030000   0.052356   0.100066   0.116112   0.031524   0.217598
H     1.3198259989   -2.6357010019   -0.0000670000   0.045446   0.086250   0.104116   0.044483   0.188472
H     3.7677380003    0.1118639999    0.0009900000   0.119535   0.249708   0.318545   0.242236   0.448158
H     3.5865660011   -1.6102360021    0.0011760000   0.128742   0.258832   0.321544   0.253211   0.424187
H     1.7776549978    2.6365179986    0.0000630000   0.177753   0.355849   0.356148   0.345394   0.450385
H    -0.5045679999    1.9888059973    0.0000210000   0.049218   0.094403   0.115471   0.041362   0.225416
22
Symbol, X, Y, Z atomic coordinates followed by atomic charges from H, SH, CM5, AVH-B, HLYGAt
H    -0.3279509998   -1.7780899974    1.0174919979   0.045134   0.087941   0.108555   0.036124   0.176174
C    -0.9673319992   -1.0143629995    0.5807140017  -0.042084  -0.096335  -0.088486  -0.080957  -0.328225
C    -2.5980059999    0.9429930014   -0.5527050012  -0.043449  -0.077616  -0.098339   0.000571  -0.101144
C    -0.3982990002    0.1678660002    0.0975619999   0.042416   0.078651   0.094275   0.185425   0.407656
C    -2.3413039976   -1.2114340010    0.4880679999  -0.037870  -0.073267  -0.092732   0.013179  -0.047040
C    -3.1639270009   -0.2362639999   -0.0758390002  -0.046882  -0.086062  -0.102037  -0.051548  -0.205252
C    -1.2214899979    1.1432029974   -0.4724270001  -0.054065  -0.108389  -0.101481  -0.096712  -0.290490
N     1.0023059984    0.4053560000    0.2093580000  -0.035701  -0.069438  -0.295155  -0.329915  -0.238983
H    -2.7741580019   -2.1383500007    0.8670180026   0.044992   0.082853   0.100410   0.021100   0.125002
H    -4.2406509999   -0.3959000001   -0.1422290000   0.042369   0.079448   0.097693   0.026569   0.141291
H    -0.7861069975    2.0631499979   -0.8638179992   0.040396   0.078387   0.100127   0.023396   0.158591
H    -3.2278799983    1.7131630017   -1.0001549988   0.042649   0.079471   0.098048   0.020640   0.132507
C     3.3728039989   -0.1737540000   -0.1474559998  -0.091184  -0.266261  -0.226943   0.050440  -0.640581
C     1.9055070008   -0.5473569987   -0.2166999999   0.168733   0.285319   0.263294   0.535621   0.701125
O     1.5575390008   -1.6362799983   -0.6303469982  -0.298853  -0.362367  -0.345381  -0.511187  -0.556341
C     1.4271799997    1.7384789982    0.6073250007  -0.034865  -0.144910  -0.120194   0.391773  -0.454119
H     1.6195519976    2.3975160003   -0.2545950002   0.034861   0.065458   0.094796  -0.070689   0.152505
H     2.3356640005    1.6909260016    1.2160229993   0.041680   0.079092   0.104074  -0.064706   0.165031
H     0.6407549984    2.1906289996    1.2204110003   0.044561   0.085052   0.108030  -0.055954   0.163532
H     3.5858400017    0.7577749978   -0.6893430022   0.042568   0.088480   0.097050  -0.023905   0.181417
H     3.9412389991   -0.9934570018   -0.5943039975   0.049716   0.102735   0.105705  -0.003489   0.181685
H     3.6984120021   -0.0389940000    0.8938470014   0.044851   0.091734   0.098706  -0.015801   0.175660
9
Symbol, X, Y, Z atomic coordinates followed by atomic charges from H, SH, CM5, AVH-B, HLYGAt
H     2.1972810006    0.1826509998    0.0000000000   0.062144   0.122161   0.117753   0.096244   0.207051
C     1.1558749977   -0.1222809999    0.0000000000  -0.086944  -0.183871  -0.134081  -0.262289  -0.339743
C     0.0001720000    0.7137399978    0.0000000000   0.057634   0.106574   0.077962   0.209526   0.329183
C     0.6558560015   -1.3886499984    0.0000000000   0.021422  -0.001072  -0.000910   0.203834  -0.060343
F     0.0091350000    2.0418070003    0.0000000000  -0.100227  -0.114093  -0.126949  -0.167341  -0.183814
C    -1.0998369991   -0.0849260001    0.0000000000  -0.008070  -0.072387  -0.026505   0.014278  -0.227929
H    -2.1651150009    0.1107110000    0.0000000000   0.067059   0.120282   0.129671   0.062533   0.201472
H     1.1289560017   -2.3645940022    0.0000000000   0.064551   0.109552   0.127145   0.028401   0.172758
O    -0.6906060000   -1.3752760022    0.0000000000  -0.077568  -0.087146  -0.164083  -0.185185  -0.098634
14
Symbol, X, Y, Z atomic coordinates followed by atomic charges from H, SH, CM5, AVH-B, HLYGAt
C    -0.2439679999    0.0000000000   -0.0000100000   0.022293   0.018980   0.074041  -0.152115   0.226799
N    -1.7159420023    0.0000000000   -0.0000250000   0.252937   0.371097   0.083276   0.691160   0.596653
O    -2.2803460003   -1.0744380011   -0.0000440000  -0.203313  -0.256418  -0.162932  -0.381433  -0.388529
O    -2.2803460003    1.0744380011   -0.0000180000  -0.203313  -0.256378  -0.162932  -0.381651  -0.388529
C     0.4270080000    1.2186240006    0.0000150000  -0.027246  -0.079823  -0.073340   0.056001  -0.279166
C     1.8185070023    1.2102970003    0.0000310000  -0.030316  -0.074150  -0.085067  -0.039360  -0.034881
C     2.5124980007    0.0000000000    0.0000220000  -0.021737  -0.061022  -0.076826   0.020147  -0.191163
C     1.8185070023   -1.2102970003   -0.0000040000  -0.030316  -0.074244  -0.085067  -0.037281  -0.034881
C     0.4270080000   -1.2186240006   -0.0000210000  -0.027246  -0.079811  -0.073340   0.054073  -0.279166
H    -0.1430529998    2.1455739999    0.0000230000   0.054866   0.102992   0.118798   0.032218   0.181869
H     2.3631869993    2.1546350008    0.0000520000   0.052825   0.095622   0.108239   0.037858   0.128899
H     3.6031000002    0.0000000000    0.0000350000   0.052864   0.094362   0.108153   0.030390   0.151329
H     2.3631869993   -2.1546350008   -0.0000120000   0.052825   0.095588   0.108239   0.037391   0.128899
H    -0.1430529998   -2.1455739999   -0.0000400000   0.054866   0.103193   0.118798   0.032588   0.181869
13
Symbol, X, Y, Z atomic coordinates followed by atomic charges from H, SH, CM5, AVH-B, HLYGAt
C    -1.1890500008    1.3991050002    0.0000000000  -0.035866  -0.144276  -0.118383   0.389321  -0.500923
N     0.0007660000    0.5776390006    0.0000000000  -0.038359  -0.067489  -0.318345  -0.401071   0.211843
C    -0.1256720002   -0.7713400005    0.0000000000   0.212027   0.348730   0.341934   0.732211   0.522710
C     1.2671160010    1.2768760026    0.0000000000  -0.037102  -0.144011  -0.119557   0.391335  -0.506924
H     2.0971300012    0.5682039985    0.0000000000   0.043263   0.086187   0.112731  -0.054948   0.189739
H     1.3466669994    1.9190240018    0.8911959982   0.036471   0.069151   0.097398  -0.070356   0.153662
H     1.3466669994    1.9190240018   -0.8911959982   0.036471   0.069345   0.097398  -0.070366   0.153662
H    -2.0726469984    0.7555089975    0.0000000000   0.046468   0.092052   0.115187  -0.047236   0.187999
H    -1.2088169975    2.0437940026   -0.8923490013   0.035894   0.067915   0.096796  -0.071551   0.150175
H    -1.2088169975    2.0437940026    0.8923490013   0.035894   0.068001   0.096796  -0.071546   0.150175
O    -1.1756789997   -1.3816680026    0.0000000000  -0.332420  -0.414321  -0.381172  -0.578758  -0.568847
O     1.0655109985   -1.4120549985    0.0000000000  -0.179146  -0.385514  -0.381179  -0.485601  -0.578055
H     0.8568500001   -2.3518349998    0.0000000000   0.176408   0.354234   0.360407   0.338571   0.434785
16
Symbol, X, Y, Z atomic coordinates followed by atomic charges from H, SH, CM5, AVH-B, HLYGAt
H     2.1157150012    2.0712569980   -0.2487930001   0.037502   0.071565   0.091775  -0.038704  -0.003221
C     1.5982329982    1.2070960020    0.1888540002  -0.049259  -0.108545  -0.157672   0.168894   0.110132
H     1.7382589981    1.2741620008    1.2806730025   0.029097   0.056745   0.084661  -0.059956   0.020558
C     2.1955690012   -0.1043070001   -0.3214820000  -0.056862  -0.135413  -0.163656  -0.032983  -0.131546
C     0.1029099997    1.2715479977   -0.1379020000  -0.062032  -0.152951  -0.166091  -0.028154  -0.194327
H     1.4560290003   -1.3729449978    1.2751979975   0.027982   0.045054   0.090559  -0.097245   0.032501
H     1.6956320010   -2.2288129984   -0.2695889999   0.046315   0.077976   0.109756  -0.058173   0.054144
H    -0.5499290011   -0.0415150000    1.4644010018   0.034112   0.048375   0.101222  -0.063824   0.222728
H     3.2362469991   -0.2206050001    0.0133530000   0.037766   0.073102   0.092214  -0.016037   0.027927
H     2.1992180009   -0.1117209998   -1.4220209982   0.034813   0.068542   0.091777  -0.024250   0.078174
C     1.3676020013   -1.2825859993    0.1751240001   0.024560  -0.003579  -0.053379   0.446877   0.125558
H    -0.3693969999    2.1477519981    0.3251899998   0.038686   0.076427   0.094050  -0.008910   0.091066
C    -0.5725869987    0.0039090000    0.3605429999   0.087705   0.121696   0.058109   0.447176  -0.255028
H    -0.0508780000    1.3377700012   -1.2248619998   0.036328   0.073166   0.094555  -0.016155   0.139457
O     0.0024540000   -1.1414130026   -0.1772640001  -0.161189  -0.194755  -0.260776  -0.398166  -0.230187
Cl   -2.3143540024   -0.0174620000   -0.0787810001  -0.105547  -0.117430  -0.107104  -0.220411  -0.087935
10
Symbol, X, Y, Z atomic coordinates followed by atomic charges from H, SH, CM5, AVH-B, HLYGAt
H     2.1121810023   -2.2536379979    0.0000000000   0.046001   0.091970   0.101359   0.052905   0.186416
C     1.2593919981   -1.5807129991    0.0000000000  -0.087503  -0.139221  -0.132652  -0.123258  -0.294927
C     1.3042669982   -0.1552020000    0.0000000000  -0.092247  -0.162977  -0.135426  -0.145672  -0.052928
C    -0.0631900001   -1.9582889985    0.0000000000  -0.033360  -0.067594  -0.017921   0.045309  -0.198572
H     2.1819699989    0.4832299999    0.0000000000   0.049961   0.100757   0.105694   0.062587   0.130924
C    -0.0018430000    0.2682730002    0.0000000000   0.029324   0.066024   0.094343   0.170720  -0.091475
Cl   -0.6583899983    1.8613859988    0.0000000000  -0.061015  -0.070267  -0.055809  -0.124692  -0.054320
H    -1.8334300007   -0.7762279999    0.0000000000   0.145917   0.276591   0.340798   0.248064   0.275586
N    -0.8263770023   -0.8186000023    0.0000000000  -0.048272  -0.187732  -0.415024  -0.219728  -0.077359
H    -0.5242599999   -2.9404559992    0.0000000000   0.051190   0.092444   0.114632   0.033759   0.176656
12
Symbol, X, Y, Z atomic coordinates followed by atomic charges from H, SH, CM5, AVH-B, HLYGAt
H     2.8043969975    1.2454079982    0.0000100000   0.048507   0.089422   0.103936   0.032760   0.156432
F    -1.7019580023   -1.3475590017   -0.0000080000  -0.095563  -0.110611  -0.122462  -0.165159  -0.175455
C    -0.5382100013   -0.6969129986   -0.0000040000   0.080684   0.114952   0.100580   0.190141   0.248828
H     2.8043969975   -1.2454069980   -0.0000010000   0.048507   0.089537   0.103936   0.033396   0.156432
H     0.6275920011    2.4886029985    0.0000110000   0.057343   0.107948   0.113840   0.057024   0.184535
C     1.8624900001    0.6968520003    0.0000060000  -0.041718  -0.080891  -0.096577  -0.017221  -0.158768
C    -0.5382100013    0.6969129986    0.0000020000   0.080684   0.114927   0.100581   0.191249   0.248829
C     0.6577470004   -1.3990849973   -0.0000050000  -0.049258  -0.120825  -0.099305  -0.097014  -0.255572
C     1.8624910002   -0.6968510002    0.0000000000  -0.041718  -0.081014  -0.096577  -0.019840  -0.158768
C     0.6577460002    1.3990849973    0.0000070000  -0.049258  -0.120776  -0.099305  -0.097542  -0.255572
F    -1.7019580023    1.3475580016    0.0000030000  -0.095563  -0.110615  -0.122462  -0.165032  -0.175455
H     0.6275930012   -2.4886029985   -0.0000090000   0.057342   0.107938   0.113839   0.057231   0.184535
10
Symbol, X, Y, Z atomic coordinates followed by atomic charges from H, SH, CM5, AVH-B, HLYGAt
F     1.4267800000   -0.6184360023   -0.1650760001  -0.190203  -0.208004  -0.216169  -0.329840  -0.238354
C     0.7127579983    0.5169499999    0.2947950000   0.075407   0.068956   0.060023   0.587795   0.049857
H     0.6672130017    0.4075220001    1.3877329978   0.040531   0.061860   0.107040  -0.074416   0.144856
N    -0.5736419981    0.6200350012   -0.2422500002  -0.137123  -0.268486  -0.515805  -0.497830  -0.634440
H     1.3221120021    1.3852979995    0.0146250000   0.042748   0.063720   0.108651  -0.068119   0.106141
C    -1.5287439975   -0.4172260000    0.0976250000  -0.044019  -0.134777  -0.130826   0.403840  -0.130747
H    -0.5728039984    0.8580980010   -1.2263219997   0.109562   0.219107   0.303369   0.195111   0.401288
H    -2.5208069984   -0.1400610001   -0.2800999997   0.038164   0.071943   0.098459  -0.063504   0.085843
H    -1.5986669976   -0.4973480002    1.1918200001   0.037680   0.072479   0.098703  -0.066851   0.119126
H    -1.2626149996   -1.4100389973   -0.3023989998   0.027250   0.053198   0.086551  -0.086189   0.096430
19
Symbol, X, Y, Z atomic coordinates followed by atomic charges from H, SH, CM5, AVH-B, HLYGAt
H     0.1534369998   -1.6391629981   -1.1129150000   0.043107   0.081013   0.102203   0.001156   0.166916
C    -0.5359470014   -0.9496229991   -0.6238209996  -0.036220  -0.077182  -0.087908   0.060554  -0.330763
C    -2.3111990003    0.8302269993    0.5790590000  -0.037671  -0.078145  -0.092625  -0.037180  -0.048281
C    -0.0649350001    0.2645890002   -0.1151859998  -0.010683  -0.023602  -0.014079  -0.204789   0.398343
C    -1.8887679984   -1.2702930010   -0.5337329981  -0.041118  -0.080822  -0.096177  -0.047012  -0.058425
C    -2.7762239997   -0.3848379998    0.0755530001  -0.035846  -0.072992  -0.090984  -0.002118  -0.198689
C    -0.9627100014    1.1588829997    0.4752879998  -0.028565  -0.071149  -0.079680   0.056013  -0.352528
C     1.3704040000    0.6908340013   -0.2591609999   0.158626   0.266733   0.260015   0.654437   0.308855
H    -2.2515000002   -2.2132289994   -0.9451400003   0.044582   0.082831   0.099963   0.026958   0.123319
H    -3.8345300018   -0.6384810022    0.1508919998   0.045649   0.083811   0.100925   0.023697   0.143528
H    -0.5902519976    2.1172019997    0.8383699994   0.049499   0.091569   0.108409   0.021072   0.192856
H    -3.0053260025    1.5284179979    1.0488189977   0.046277   0.085338   0.101617   0.027823   0.125667
O     1.6520859977    1.8183500007   -0.6301379996  -0.319580  -0.384104  -0.362632  -0.556094  -0.524483
N     2.3431230020   -0.2220210000    0.0235010000  -0.086826  -0.236089  -0.453968  -0.462356  -0.324838
H     3.2727080022    0.1386780003   -0.1445660000   0.126504   0.247840   0.325264   0.230341   0.304683
C     2.2272670019   -1.4796680024    0.7297260021  -0.035276  -0.136429  -0.121396   0.403852  -0.250862
H     2.2538880023   -2.3461749998    0.0512180000   0.033230   0.062567   0.092675  -0.072986   0.095753
H     1.2914730014   -1.5143379999    1.2983450025   0.041289   0.080216   0.104781  -0.067289   0.100892
H     3.0570059993   -1.5748110010    1.4416249977   0.043032   0.078605   0.103584  -0.056070   0.128057
8
Symbol, X, Y, Z atomic coordinates followed by atomic charges from H, SH, CM5, AVH-B, HLYGAt
C    -1.3914959981   -0.1235820000    0.0000820000  -0.084033  -0.280006  -0.221565   0.033203  -0.500253
C     0.0895829998    0.1221370002   -0.0001180000   0.210156   0.346137   0.260679   0.634462   0.750101
O     0.6261770024    1.1992020010   -0.0007810000  -0.289747  -0.364959  -0.342114  -0.519251  -0.554409
O     0.7894819998   -1.0260560008    0.0005430000  -0.174877  -0.376843  -0.378819  -0.479095  -0.576028
H    -1.6683240015   -0.7116740000    0.8852109987   0.054181   0.108181   0.108126  -0.001956   0.161033
H    -1.9224639976    0.8320389974   -0.0004500000   0.053222   0.107887   0.107865  -0.001148   0.150736
H    -1.6683900005   -0.7126919994   -0.8843500009   0.054182   0.108475   0.108126  -0.001957   0.161032
H     1.7278619994   -0.7968650009    0.0003710000   0.176914   0.351127   0.357703   0.335742   0.407788
14
Symbol, X, Y, Z atomic coordinates followed by atomic charges from H, SH, CM5, AVH-B, HLYGAt
N     0.7191539992    2.0484379983   -0.1234800001  -0.162652  -0.413394  -0.621259  -0.481997  -0.768573
C    -0.1143530002    0.9550959986   -0.0484230000   0.043433   0.089698   0.098510   0.266646   0.423491
C    -1.8346730009   -1.2912039995    0.0179150000  -0.060831  -0.104952  -0.115902  -0.098989  -0.247442
C    -1.5120339994    1.1051619982   -0.0328200000  -0.065152  -0.124903  -0.112250  -0.157031  -0.329879
C     0.3862839998   -0.3582620001   -0.0288480000  -0.000697   0.000483   0.000078  -0.047592  -0.128544
C    -0.4541420002   -1.4651049980    0.0035090000  -0.044565  -0.091195  -0.096478   0.026450  -0.017165
C    -2.3557080002    0.0029170000    0.0003850000  -0.041012  -0.072313  -0.095905   0.037549  -0.086106
H    -1.9297170010    2.1136730016   -0.0520100000   0.040361   0.077125   0.099059   0.037342   0.169723
Cl    2.1244689999   -0.6002050007   -0.0367360000  -0.065535  -0.075882  -0.065526  -0.112165  -0.083462
H    -0.0177340000   -2.4635800021    0.0190400000   0.048362   0.091136   0.104890   0.028480   0.116364
H    -3.4354189982    0.1577080002    0.0108440000   0.044622   0.082632   0.100038   0.019962   0.137439
H    -2.4942949979   -2.1582669980    0.0432420000   0.041875   0.080967   0.097306   0.033924   0.149339
H     0.3401000000    2.9458010012    0.1352129997   0.119873   0.243246   0.311725   0.236430   0.348904
H     1.6955389981    1.9122950003    0.0929880001   0.101918   0.217353   0.295718   0.210991   0.315910
20
Symbol, X, Y, Z atomic coordinates followed by atomic charges from H, SH, CM5, AVH-B, HLYGAt
C     0.6608049991    2.2899210016    0.0000000000  -0.049934  -0.128982  -0.133766   0.409204  -0.622882
N     0.5527569982    0.8504219998    0.0000000000  -0.097374  -0.111329  -0.380792  -0.426903  -0.126429
C    -0.0932669998   -1.1700159992    1.2514369988  -0.055357  -0.118424  -0.159515   0.032468  -0.143168
C    -0.0932669998   -1.1700159992   -1.2514369988  -0.055357  -0.118360  -0.159515   0.034348  -0.143168
C    -0.7476639983   -1.7513429999    0.0000000000  -0.053076  -0.106201  -0.160669   0.141290  -0.042260
C    -0.0895899997    0.3536280000   -1.2039860011  -0.014318  -0.038317  -0.060210   0.343200  -0.185241
C    -0.0895899997    0.3536280000    1.2039860011  -0.014318  -0.038282  -0.060210   0.340943  -0.185241
H     0.9469740015   -1.5233680016    1.3230200014   0.028210   0.056697   0.086015  -0.042782   0.087555
H     0.9469740015   -1.5233680016   -1.3230200014   0.028210   0.056695   0.086015  -0.043441   0.087555
H    -1.8214260020   -1.4980590008    0.0000000000   0.024761   0.050096   0.080534  -0.062999   0.058538
H    -1.1399559978    0.7240310023   -1.2710900001   0.011249   0.020672   0.075150  -0.108672   0.106377
H    -1.1399559978    0.7240310023    1.2710900001   0.011249   0.020691   0.075150  -0.108001   0.106377
H     0.4449669997    0.7576180015    2.0755430001   0.031457   0.056446   0.096768  -0.067984   0.129908
H    -0.6169919994   -1.5054169982    2.1580179989   0.031117   0.061254   0.085727  -0.033694   0.062278
H    -0.6169919994   -1.5054169982   -2.1580179989   0.031117   0.061265   0.085727  -0.034323   0.062278
H    -0.6805670003   -2.8485399973    0.0000000000   0.030244   0.059082   0.084445  -0.047511   0.035624
H     0.4449669997    0.7576180015   -2.0755430001   0.031457   0.056416   0.096768  -0.068669   0.129908
H     1.2115050007    2.6265010021    0.8890109991   0.033147   0.064651   0.094362  -0.073977   0.211353
H    -0.3315640001    2.7929200011    0.0000000000   0.014409   0.031320   0.073648  -0.108474   0.159286
H     1.2115050007    2.6265010021   -0.8890109991   0.033147   0.064650   0.094362  -0.073983   0.211353
8
Symbol, X, Y, Z atomic coordinates followed by atomic charges from H, SH, CM5, AVH-B, HLYGAt
C     0.0046950000    0.5534380016    0.0000000000   0.050966   0.035901  -0.033189   0.472995   0.289050
C    -1.1315530024   -0.4407880000    0.0000000000  -0.091616  -0.236828  -0.237608   0.063560  -0.322620
H    -1.0898550024   -1.0784970020    0.8927399997   0.039670   0.082797   0.091073  -0.028705   0.105411
H    -1.0898550024   -1.0784970020   -0.8927399997   0.039670   0.082923   0.091073  -0.028673   0.105411
H    -2.0916530012    0.0946980002    0.0000000000   0.041451   0.085118   0.092036  -0.026120   0.075314
F     1.2239640019   -0.1127710001    0.0000000000  -0.157313  -0.170852  -0.190109  -0.293764  -0.285001
H    -0.0156340000    1.1940910011    0.8940630010   0.038579   0.060380   0.093364  -0.079608   0.016217
H    -0.0156340000    1.1940910011   -0.8940630010   0.038579   0.060547   0.093364  -0.079698   0.016217
11
Symbol, X, Y, Z atomic coordinates followed by atomic charges from H, SH, CM5, AVH-B, HLYGAt
H    -0.3214200000    2.1590970019    0.0001950000   0.055354   0.104924   0.111926   0.061047   0.171097
H     2.1756219996   -2.0636719994   -0.0001770000   0.051070   0.084745   0.116506  -0.003471   0.034173
C     1.5921610020   -1.1393689974   -0.0000950000   0.027228   0.025438   0.053995   0.254978   0.474763
H    -0.3214200000   -2.1590970019   -0.0001980000   0.055355   0.104842   0.111926   0.061236   0.171097
Cl   -2.2400249988    0.0000000000   -0.0000110000  -0.047841  -0.055635  -0.049279  -0.117031  -0.085658
C     0.1994649998    1.2027329994    0.0001100000  -0.049663  -0.125001  -0.095985  -0.157622  -0.441946
C     0.1994659999   -1.2027329994   -0.0001080000  -0.049663  -0.124938  -0.095984  -0.157999  -0.441946
N     2.2789300015    0.0000000000    0.0000110000  -0.160285  -0.200158  -0.359109  -0.376284  -0.679879
C     1.5921610020    1.1393699976    0.0001110000   0.027228   0.025363   0.053995   0.254992   0.474762
C    -0.4981449998    0.0000000000   -0.0000020000   0.040139   0.075612   0.035514   0.183697   0.289365
H     2.1756219996    2.0636719994    0.0001980000   0.051071   0.084801   0.116506  -0.003550   0.034174
7
Symbol, X, Y, Z atomic coordinates followed by atomic charges from H, SH, CM5, AVH-B, HLYGAt
H     1.4267440000   -1.1447739976    0.0000000000   0.041947   0.094330   0.096168   0.063417   0.274569
C     1.2361890009   -0.0713669998    0.0000000000  -0.134359  -0.261039  -0.231681  -0.262480  -0.647015
C    -0.0037260000    0.4118200002    0.0000000000   0.026965   0.039527  -0.006351   0.257739   0.151422
H     2.0788080023    0.6172729978    0.0000000000   0.036982   0.085130   0.089543   0.053147   0.203441
O    -1.0993579985   -0.3892280000    0.0000000000  -0.185771  -0.364111  -0.400435  -0.429144  -0.467770
H    -0.1995099999    1.4887649979    0.0000000000   0.043268   0.065596   0.104803  -0.012900   0.100508
H    -1.9029910013    0.1319529998    0.0000000000   0.170967   0.340566   0.347951   0.330220   0.384845
14
Symbol, X, Y, Z atomic coordinates followed by atomic charges from H, SH, CM5, AVH-B, HLYGAt
C     0.0000070000    0.0000060000   -0.3700750002  -0.011186  -0.002918  -0.089733  -0.123103   0.594061
C     0.6323299998    1.3119709982    0.0952490002  -0.090939  -0.201700  -0.237807   0.262760  -0.633311
C     0.8200059997   -1.2035589974    0.0953900000  -0.090938  -0.201346  -0.237806   0.256155  -0.633483
C    -1.4523440007   -0.1083919999    0.0952810001  -0.090936  -0.202066  -0.237808   0.245360  -0.634625
H     0.0000410000   -0.0000430000   -1.4734619973   0.026449   0.046890   0.084032  -0.025389  -0.029853
H     0.0636259998    2.1804049996   -0.2666899999   0.029082   0.063126   0.080220  -0.068468   0.144506
H     0.6567750024    1.3618529989    1.1952109994   0.027692   0.060894   0.079266  -0.074057   0.156268
H     1.6656950015    1.4084520002   -0.2673050001   0.029083   0.063039   0.080221  -0.068566   0.144583
H     0.3868330000   -2.1467669982   -0.2669830000   0.029081   0.063089   0.080220  -0.066854   0.144662
H     1.8564269998   -1.1453949976   -0.2666110001   0.029080   0.062864   0.080219  -0.067030   0.144554
H     0.8510299980   -1.2494740001    1.1953559992   0.027689   0.060734   0.079266  -0.072366   0.156275
H    -2.0525389999    0.7385210014   -0.2668040000   0.029084   0.063287   0.080220  -0.064292   0.144985
H    -1.9201860009   -1.0348990018   -0.2670689998   0.029081   0.063247   0.080221  -0.064286   0.144830
H    -1.5076519993   -0.1126580001    1.1952439989   0.027692   0.060874   0.079266  -0.069850   0.156548
10
Symbol, X, Y, Z atomic coordinates followed by atomic charges from H, SH, CM5, AVH-B, HLYGAt
C     1.2432440021   -0.2389930002   -0.0271550000  -0.093322  -0.209694  -0.236941   0.111623  -0.413112
C    -0.0483030000    0.5602310018    0.0521590000  -0.013697  -0.024725  -0.069143   0.401088   0.440382
N    -1.2048889997   -0.3096900002   -0.1112139999  -0.211470  -0.422218  -0.670112  -0.531832  -0.962093
H     1.3058739983   -0.7737719985   -0.9845169973   0.031394   0.068262   0.085007  -0.046298   0.118544
H     2.1184639974    0.4180010001    0.0703350000   0.032707   0.069745   0.083496  -0.044121   0.078591
H     1.2927510014   -0.9841860023    0.7815010021   0.028234   0.060766   0.081017  -0.051719   0.118394
H    -0.0629689998    1.1340250008    0.9992329975   0.013956   0.023165   0.074966  -0.113138  -0.075682
H    -0.0683570002    1.3009799981   -0.7612579999   0.030282   0.053534   0.094094  -0.081389   0.009568
H    -2.0757109980    0.2098209999   -0.0899430001   0.092197   0.192431   0.279981   0.182290   0.340737
H    -1.2498689991   -1.0089129981    0.6241149999   0.089722   0.188736   0.277637   0.173498   0.344671
15
Symbol, X, Y, Z atomic coordinates followed by atomic charges from H, SH, CM5, AVH-B, HLYGAt
H     2.0273019990    2.0015000008    0.0591450002   0.105005   0.212029   0.298602   0.193830   0.351351
N     1.5231820011    1.1489900000    0.2671819998  -0.149958  -0.272060  -0.517890  -0.468930  -0.588122
Cl   -2.2917939979   -0.0181140000   -0.0951310000  -0.098411  -0.109562  -0.099851  -0.208200  -0.070258
C     2.1538989999   -0.0221700000   -0.3159660002  -0.020001  -0.067685  -0.066100   0.276985  -0.024499
C     0.1240090000    1.2493060022   -0.1071880001  -0.026095  -0.085633  -0.069309   0.265911  -0.131854
H     1.5197830006   -1.3617630018    1.2531000017   0.030977   0.051345   0.096186  -0.083636   0.090668
H     1.7618990004   -2.1626370016   -0.3308490002   0.048080   0.081645   0.111827  -0.048451   0.079182
H    -0.5478729994   -0.0592720001    1.4843010018   0.037180   0.054857   0.106740  -0.049705   0.281444
H     3.1984499982   -0.0838689998    0.0177440000   0.041657   0.074053   0.105824  -0.047191   0.083558
H     2.1438809980   -0.0052440000   -1.4244409996   0.022810   0.040951   0.087339  -0.085099   0.093490
C     1.3986330006   -1.2530650019    0.1604149999   0.021347  -0.015948  -0.050817   0.372474   0.008753
H    -0.3303000000    2.1243789974    0.3736370000   0.042040   0.076447   0.107019  -0.036974   0.156886
C    -0.5657440018   -0.0172930000    0.3825919997   0.083579   0.109195   0.060064   0.376702  -0.345711
H    -0.0357470000    1.3226309979   -1.2008269984   0.023486   0.044331   0.089193  -0.074576   0.161069
O     0.0210680000   -1.1552979988   -0.1604340000  -0.161717  -0.193985  -0.258822  -0.383158  -0.145958
22
Symbol, X, Y, Z atomic coordinates followed by atomic charges from H, SH, CM5, AVH-B, HLYGAt
O    -2.5077299976   -2.6181869984    0.1369690002  -0.167647  -0.372031  -0.372623  -0.476306  -0.574437
C    -1.3268870009   -2.0424799973   -0.1334179999   0.212523   0.335523   0.270515   0.633906   0.652839
O    -0.5329440001   -2.5148000009   -0.9014219986  -0.268527  -0.342797  -0.322060  -0.494754  -0.510182
C    -1.1588679976   -0.7744349993    0.6779460014  -0.013615  -0.103084  -0.046286   0.196158  -0.235756
N    -0.0000270000    0.0003610000    0.3129350001  -0.078116  -0.086880  -0.351257  -0.354451  -0.122937
C    -0.0922959998    1.3907719990    0.6798520025  -0.013559  -0.103383  -0.046240   0.196459  -0.200650
C    -1.1043229983    2.1714549990   -0.1331280003   0.212535   0.335729   0.270529   0.632467   0.651009
O    -1.0111719974    3.4819309974    0.1367790002  -0.167621  -0.372023  -0.372593  -0.475929  -0.579132
O    -1.9100810022    1.7206339996   -0.9017420026  -0.268488  -0.342846  -0.322041  -0.494261  -0.513037
C     1.2502560023   -0.6154300006    0.6790589987  -0.013605  -0.103212  -0.046283   0.192029  -0.234589
C     2.4320179999   -0.1292659999   -0.1344799999   0.212478   0.335527   0.270478   0.630951   0.656616
O     3.5205699986   -0.8649449985    0.1353140001  -0.167666  -0.372086  -0.372636  -0.475248  -0.575959
O     2.4440830022    0.7936120004   -0.9034930024  -0.268630  -0.342908  -0.322113  -0.493267  -0.513228
H    -2.5714219996   -3.4261919998   -0.3880200001   0.181009   0.357726   0.361797   0.340860   0.423543
H    -2.0633970019   -0.1786770001    0.5081360000   0.048396   0.092840   0.125353  -0.028554   0.179088
H    -1.1723350020   -1.0695040004    1.7502679975   0.033879   0.060728   0.100375  -0.052618   0.102341
H    -0.3444210002    1.5481679974    1.7516830015   0.033904   0.060892   0.100409  -0.052539   0.092428
H     0.8762560026    1.8767259995    0.5142289998   0.048436   0.093108   0.125336  -0.028329   0.171619
H    -1.6780529986    3.9416699981   -0.3890210001   0.181022   0.357676   0.361807   0.340980   0.425806
H     1.5131820017   -0.4764720000    1.7508110021   0.033906   0.060823   0.100405  -0.051284   0.100401
H     1.1863820004   -1.6970970016    0.5126170001   0.048381   0.092964   0.125330  -0.027284   0.180380
H     4.2517940009   -0.5175140002   -0.3911390002   0.180995   0.357704   0.361783   0.341004   0.423836
10
Symbol, X, Y, Z atomic coordinates followed by atomic charges from H, SH, CM5, AVH-B, HLYGAt
H    -3.2919229982    0.0000000000    0.0000700000   0.058684   0.109682   0.114675   0.078312   0.270015
H    -1.9575840021    2.1577299995    0.0000710000   0.060861   0.098477   0.126223  -0.001034  -0.000004
C    -1.4673870006    1.1809219976    0.0000740000   0.050417   0.049925   0.079725   0.333559   0.774248
H    -1.9575850023   -2.1577299995    0.0000710000   0.060861   0.098264   0.126223  -0.000932  -0.000004
Cl    2.1898869979    0.0000000000    0.0000720000  -0.055090  -0.070318  -0.039329  -0.166184  -0.121389
N    -0.1363709998   -1.1840120009    0.0000740000  -0.156255  -0.216383  -0.345135  -0.413629  -0.806229
N    -0.1363709998    1.1840120009    0.0000740000  -0.156255  -0.216347  -0.345135  -0.413658  -0.806229
C    -2.2032959992    0.0000000000    0.0000720000  -0.050241  -0.132029  -0.092932  -0.265887  -0.917293
C    -1.4673870006   -1.1809219976    0.0000740000   0.050417   0.050141   0.079725   0.333440   0.774248
C     0.4473310000    0.0000000000    0.0000750000   0.136603   0.228592   0.295978   0.516014   0.832639
12
Symbol, X, Y, Z atomic coordinates followed by atomic charges from H, SH, CM5, AVH-B, HLYGAt
C    -0.0256210000    2.0542869993    0.0000000000  -0.023191  -0.151798  -0.105937   0.365615  -0.464248
N     0.0027900000    0.6087830004    0.0000000000   0.000610   0.011103  -0.276046  -0.141415   0.380240
H     1.2144710020   -2.4082200011    0.0000000000   0.046098   0.086107   0.109780   0.031034   0.098292
C    -1.0753070001   -0.2200360002    0.0000000000   0.027333   0.018395   0.132283   0.230878   0.092754
C     1.1151500011   -0.1968900002    0.0000000000  -0.044448  -0.097982  -0.018420  -0.058352  -0.575405
C     0.6403959993   -1.4854109987    0.0000000000  -0.046748  -0.072553  -0.016815   0.042082   0.211112
N    -0.7274779991   -1.4837790003    0.0000000000  -0.212361  -0.250441  -0.397605  -0.379705  -0.555355
H    -2.0939150009    0.1634920002    0.0000000000   0.054976   0.091423   0.127463   0.006652   0.112025
H     2.1202830017    0.2120799997    0.0000000000   0.050531   0.094749   0.114694   0.048159   0.240706
H     1.0018460005    2.4327759986    0.0000000000   0.052137   0.096138   0.114067  -0.040907   0.182706
H    -0.5380479990    2.4327600016    0.8941249994   0.047529   0.087457   0.108263  -0.052046   0.138587
H    -0.5380479990    2.4327600016   -0.8941249994   0.047529   0.087397   0.108263  -0.051999   0.138587
15
Symbol, X, Y, Z atomic coordinates followed by atomic charges from H, SH, CM5, AVH-B, HLYGAt
H     1.6131580022    2.0115080013    0.0919980000   0.104175   0.210591   0.297871   0.193082   0.376883
N     1.1081209984    1.1564520020    0.2859410001  -0.150425  -0.271569  -0.517990  -0.465391  -0.667162
F    -2.2606959995   -0.0411440000   -0.1456459999  -0.132645  -0.154324  -0.160468  -0.265557  -0.220905
C     1.7663890002   -0.0105920000   -0.2752100001  -0.020372  -0.067500  -0.066447   0.267046  -0.008112
C    -0.2788599999    1.2443969998   -0.1331750002  -0.028288  -0.096526  -0.069411   0.222431  -0.157703
H     1.0901979991   -1.3586409991    1.2686120008   0.030015   0.049662   0.095195  -0.083588   0.099677
H     1.3915570017   -2.1533799988   -0.3069830000   0.047093   0.079973   0.110827  -0.047265   0.109734
H    -1.0193420014   -0.0808499999    1.4265980000   0.031746   0.037499   0.101675  -0.092112   0.118576
H     2.7989679992   -0.0650200002    0.0951780000   0.041113   0.073234   0.105283  -0.044805   0.090453
H     1.7952500025    0.0074940000   -1.3834329991   0.022132   0.039825   0.086669  -0.083015   0.085551
C     1.0028959992   -1.2479319989    0.1725989998   0.020727  -0.014884  -0.051059   0.365503  -0.065072
H    -0.7594830020    2.1121559987    0.3360520002   0.042828   0.077840   0.107902  -0.035921   0.134261
C    -0.9802979997   -0.0266370000    0.3221440002   0.132947   0.193301   0.130328   0.559322   0.236707
H    -0.4081849999    1.3155290005   -1.2314170025   0.025574   0.048027   0.091543  -0.071541   0.140145
O    -0.3608529999   -1.1570690014   -0.1940909999  -0.166637  -0.205166  -0.261915  -0.418206  -0.273032
11
Symbol, X, Y, Z atomic coordinates followed by atomic charges from H, SH, CM5, AVH-B, HLYGAt
C     0.0000000000    0.0000000000    0.0141550000   0.192590   0.313582   0.210114   0.491662   0.664341
C     0.0000000000    1.2820560019   -0.7850979995  -0.097790  -0.278204  -0.236972   0.062964  -0.672621
H     0.8936910000    1.3255579988   -1.4195859998   0.045263   0.094037   0.097817  -0.018976   0.194368
H     0.0000000000    2.1371219974   -0.0989159998   0.047134   0.098016   0.100388  -0.012597   0.199329
H    -0.8936910000    1.3255579988   -1.4195859998   0.045263   0.094041   0.097817  -0.018951   0.194368
F     1.0927330014    0.0000000000    0.8454610005  -0.136169  -0.164690  -0.164107  -0.258281  -0.247616
C     0.0000000000   -1.2820560019   -0.7850979995  -0.097790  -0.278219  -0.236972   0.063520  -0.672621
F    -1.0927330014    0.0000000000    0.8454610005  -0.136169  -0.164670  -0.164107  -0.258419  -0.247616
H     0.8936910000   -1.3255579988   -1.4195859998   0.045263   0.094034   0.097817  -0.019103   0.194368
H    -0.8936910000   -1.3255579988   -1.4195859998   0.045263   0.094098   0.097817  -0.019091   0.194368
H     0.0000000000   -2.1371219974   -0.0989159998   0.047134   0.097970   0.100388  -0.012734   0.199329
9
Symbol, X, Y, Z atomic coordinates followed by atomic charges from H, SH, CM5, AVH-B, HLYGAt
O     0.0000000000    0.5771909992    0.0000000000  -0.167378  -0.185174  -0.287275  -0.413055  -0.242866
C     1.1678320002   -0.1910679999    0.0000000000  -0.013148  -0.081642  -0.128164   0.445222  -0.170585
C    -1.1678320002   -0.1910679999    0.0000000000  -0.013148  -0.082431  -0.128164   0.445292  -0.170587
H     2.0222989989    0.4961339999    0.0000000000   0.042732   0.076529   0.102104  -0.058080   0.111934
H     1.2276810008   -0.8363559986    0.8965140016   0.027052   0.049016   0.084849  -0.090317   0.090042
H     1.2276810008   -0.8363559986   -0.8965140016   0.027052   0.048776   0.084849  -0.090301   0.090042
H    -2.0222989989    0.4961350001    0.0000000000   0.042732   0.076896   0.102104  -0.058110   0.111934
H    -1.2276810008   -0.8363549984   -0.8965140016   0.027052   0.049021   0.084849  -0.090332   0.090043
H    -1.2276810008   -0.8363549984    0.8965140016   0.027052   0.049007   0.084849  -0.090321   0.090043
16
Symbol, X, Y, Z atomic coordinates followed by atomic charges from H, SH, CM5, AVH-B, HLYGAt
H    -0.0961959998    2.1196960013   -0.2945260002   0.039758   0.070059   0.099307   0.000474   0.154831
C     0.4561470002    1.1909789999   -0.1436870002  -0.040951  -0.079567  -0.091757   0.058433  -0.225156
C     1.9070080013   -1.1706029996    0.1448370002  -0.036026  -0.077141  -0.090959  -0.049401  -0.071706
C    -0.2192640000   -0.0270260000   -0.0104070000  -0.016262  -0.033212  -0.018907  -0.244703   0.109848
C     1.8487129984    1.2269039994   -0.1316759999  -0.041028  -0.080594  -0.096139  -0.050388  -0.110646
C     2.5757480021    0.0473390000    0.0188580000  -0.032889  -0.069847  -0.088060   0.011962  -0.150290
C     0.5164180001   -1.2081679987    0.1260550002  -0.025603  -0.066764  -0.076661   0.085568  -0.212489
C    -1.7197750021   -0.1405189998   -0.0250350000   0.162179   0.282065   0.261655   0.674794   0.599123
H     2.3679160021    2.1792470011   -0.2469069999   0.045050   0.083607   0.100401   0.028910   0.130248
H     3.6661809983    0.0764539999    0.0305920000   0.046774   0.085188   0.102035   0.023036   0.135873
H    -0.0260760000   -2.1499610007    0.2108260000   0.049571   0.092587   0.109994   0.018923   0.151274
H     2.4736689984   -2.0960149984    0.2562429998   0.047212   0.086669   0.102549   0.030834   0.124272
O    -2.2796809992   -1.1881509975   -0.2883089999  -0.308312  -0.373254  -0.353029  -0.539969  -0.529654
N    -2.4181140010    0.9946689975    0.2651449998  -0.142371  -0.432562  -0.600940  -0.543975  -0.862499
H    -3.4227330012    0.9159469975    0.3171719998   0.132084   0.264492   0.326469   0.257261   0.409461
H    -1.9830419981    1.8002659992    0.6848540025   0.120817   0.248278   0.314022   0.238242   0.347509
10
Symbol, X, Y, Z atomic coordinates followed by atomic charges from H, SH, CM5, AVH-B, HLYGAt
H     2.1954890002    0.2608799998    0.0000000000   0.051195   0.104702   0.107094   0.080551   0.195587
C     1.1646719973   -0.0789799998    0.0000000000  -0.102687  -0.188191  -0.144100  -0.252135  -0.325242
C    -0.0003530000    0.7252759975    0.0000000000   0.046494   0.100917   0.072368   0.233724   0.352150
C     0.7161440022   -1.3835630020    0.0000000000  -0.029522  -0.059578  -0.012832   0.080133  -0.209190
F    -0.0136000000    2.0601519973    0.0000000000  -0.114050  -0.127927  -0.140275  -0.184715  -0.200690
C    -1.1149040025   -0.0775809997    0.0000000000  -0.054746  -0.124549  -0.035264  -0.096978  -0.354804
H    -2.1708780000    0.1668500001    0.0000000000   0.054546   0.103002   0.118117   0.061569   0.211433
H    -1.2334920016   -2.1888830006    0.0000000000   0.144879   0.271906   0.339603   0.243518   0.324417
N    -0.6485110006   -1.3696830013    0.0000000000  -0.047173  -0.171866  -0.419302  -0.194882  -0.181196
H     1.2705299983   -2.3164940003    0.0000000000   0.051058   0.091581   0.114592   0.029209   0.187537
17
Symbol, X, Y, Z atomic coordinates followed by atomic charges from H, SH, CM5, AVH-B, HLYGAt
H     2.0848119993    2.1110969987   -0.2237000000   0.035880   0.068659   0.090201  -0.041860   0.019360
C     1.5880419977    1.2259980003    0.1966310002  -0.049397  -0.106685  -0.156706   0.166724   0.054138
H     1.7292009977    1.2742670002    1.2895340009   0.027446   0.053963   0.083218  -0.063085   0.048216
C     2.2179739992   -0.0586389999   -0.3400509998  -0.054409  -0.122741  -0.158438  -0.003407  -0.180440
C     0.0924850002    1.2703889991   -0.1269050001  -0.059453  -0.141708  -0.160552  -0.007338  -0.225291
H     1.5976000017   -1.3576179990    1.2656319976   0.016606   0.028448   0.079548  -0.110743   0.032562
H     1.8424359989   -2.1949979978   -0.2837119999   0.038514   0.067162   0.102830  -0.065501   0.051320
H    -0.4738080002   -1.9993619979    0.0645620000   0.099859   0.204830   0.294182   0.185963   0.333941
H     3.2713969974   -0.1306859998   -0.0349090000   0.034266   0.066638   0.088858  -0.025361   0.047978
H     2.1896130006   -0.0542539999   -1.4402670019   0.032068   0.063462   0.089894  -0.032306   0.101413
C     1.4511929979   -1.2741640011    0.1675639998  -0.011045  -0.039607  -0.060625   0.402541   0.106378
H    -0.3843349999    2.1470979986    0.3305689998   0.036024   0.071314   0.091554  -0.016325   0.112238
C    -0.5856470023    0.0051770000    0.3736370000   0.060582   0.088787   0.059794   0.423952  -0.300442
H    -0.0579299998    1.3305599987   -1.2145519978   0.034016   0.068847   0.093126  -0.022752   0.168235
N     0.0404050000   -1.1624650003   -0.1861610000  -0.147989  -0.276207  -0.511611  -0.479755  -0.500451
Cl   -2.3399269991   -0.0008510000   -0.0789909998  -0.119335  -0.132349  -0.118950  -0.235521  -0.104935
H    -0.6001149983   -0.0004750000    1.4802840018   0.026339   0.037156   0.093681  -0.075254   0.235779
9
Symbol, X, Y, Z atomic coordinates followed by atomic charges from H, SH, CM5, AVH-B, HLYGAt
C    -1.2208789993   -0.2236509997    0.0000090000  -0.091343  -0.220606  -0.237360   0.098683  -0.331369
C     0.0845970000    0.5430439981    0.0000090000   0.018152   0.013783  -0.066084   0.443877   0.367862
O     1.1489879997   -0.3873059998    0.0000200000  -0.231882  -0.398456  -0.455827  -0.513086  -0.637412
H    -1.2902079980   -0.8626889996    0.8905220011   0.035502   0.075395   0.088533  -0.039032   0.108980
H    -2.0722370025    0.4707190002   -0.0000120000   0.035481   0.074535   0.086331  -0.039880   0.066412
H    -1.2901890005   -0.8627169984   -0.8904850010   0.035502   0.075504   0.088534  -0.039013   0.108985
H     0.1380399999    1.1946629994   -0.8906959998   0.023952   0.036484   0.084359  -0.101163  -0.031211
H     0.1380319998    1.1946780015    0.8907020007   0.023953   0.036400   0.084360  -0.101162  -0.031210
H     1.9879160007    0.0757140001    0.0000770000   0.150680   0.306959   0.327152   0.290774   0.378963
15
Symbol, X, Y, Z atomic coordinates followed by atomic charges from H, SH, CM5, AVH-B, HLYGAt
C    -0.0186490000   -1.4551300023    0.0000000000   0.270597   0.411279   0.334873   0.878950   0.428279
F     0.5782710022   -1.9787749988    1.0792290022  -0.103244  -0.140120  -0.128964  -0.254893  -0.162507
C     0.0294270000    0.0518580000    0.0000000000  -0.028203  -0.059237  -0.032176  -0.297947   0.016555
F     0.5782710022   -1.9787749988   -1.0792290022  -0.103244  -0.140097  -0.128964  -0.254894  -0.162507
F    -1.2856020025   -1.9068280017    0.0000000000  -0.115579  -0.151861  -0.139306  -0.270989  -0.168328
C     0.0323310000    2.8338870010    0.0000000000  -0.030035  -0.068768  -0.085204   0.007283  -0.121062
C     0.0304990000    0.7449359998   -1.2111679995  -0.033459  -0.074814  -0.084463   0.073869  -0.135838
C     0.0304990000    0.7449359998    1.2111679995  -0.033459  -0.075024  -0.084463   0.073858  -0.135838
C     0.0319260000    2.1371890018    1.2075970006  -0.034041  -0.074974  -0.089083  -0.039154  -0.121904
C     0.0319260000    2.1371890018   -1.2075970006  -0.034041  -0.075623  -0.089083  -0.039183  -0.121904
H     0.0356360000    0.1959489998   -2.1524609979   0.048747   0.090525   0.106821   0.015585   0.141175
H     0.0356360000    0.1959489998    2.1524609979   0.048747   0.090526   0.106821   0.015591   0.141175
H     0.0359040000    2.6805219995    2.1531340002   0.049070   0.089493   0.104434   0.032405   0.134129
H     0.0359040000    2.6805219995   -2.1531340002   0.049070   0.089724   0.104434   0.032411   0.134129
H     0.0352080000    3.9245579999    0.0000000000   0.049062   0.088959   0.104354   0.027097   0.134445
10
Symbol, X, Y, Z atomic coordinates followed by atomic charges from H, SH, CM5, AVH-B, HLYGAt
F    -2.2322739973    0.0000020000   -0.0000040000  -0.092473  -0.108059  -0.119826  -0.151086  -0.129207
H    -0.7101399999   -2.1553700015    0.0000020000   0.064260   0.108685   0.129906   0.026209   0.060928
C    -0.1909590000   -1.1932840006    0.0000050000   0.028465  -0.006574   0.063141   0.189674   0.496550
H    -0.7101359993    2.1553720018    0.0000020000   0.064260   0.108624   0.129906   0.026162   0.060928
H     2.8327990021   -0.0000020000    0.0000090000   0.055186   0.085280   0.130921  -0.018074   0.019436
N     1.1379360014    1.1853839987    0.0000130000  -0.153611  -0.197744  -0.346479  -0.386316  -0.749514
N     1.1379340011   -1.1853859990    0.0000130000  -0.153611  -0.197780  -0.346479  -0.386332  -0.749514
C    -0.8998010018    0.0000010000    0.0000030000   0.083869   0.116363   0.112092   0.095396  -0.223310
C    -0.1909570002    1.1932850007    0.0000050000   0.028465  -0.006508   0.063141   0.189848   0.496550
C     1.7402779996   -0.0000010000    0.0000270000   0.075192   0.097713   0.183697   0.414521   0.717151
16
Symbol, X, Y, Z atomic coordinates followed by atomic charges from H, SH, CM5, AVH-B, HLYGAt
H     1.9717549974    1.7513309981   -0.8905150001   0.034729   0.066189   0.095655  -0.073245   0.179512
C     1.3696170023    1.5122509991    0.0004880000  -0.039396  -0.141491  -0.121497   0.394444  -0.543464
H     1.9714840005    1.7510709975    0.8917439983   0.034729   0.066197   0.095655  -0.073245   0.179514
N     1.0098830011    0.1121299998    0.0002290000  -0.042253  -0.073063  -0.321081  -0.405908   0.016726
H     0.4756620001    2.1377589998    0.0004430000   0.040783   0.080852   0.110735  -0.061275   0.160531
C     2.1040419975   -0.8315870006    0.0002670000  -0.037539  -0.142250  -0.119822   0.392061  -0.459002
C    -0.2680390001   -0.3529399998   -0.0000240000   0.213974   0.354873   0.348454   0.717023   0.668919
H     2.7338989987   -0.6894309990    0.8925310012   0.034306   0.065345   0.095172  -0.074366   0.154007
H     2.7342050008   -0.6891419995   -0.8917350023   0.034307   0.065381   0.095173  -0.074458   0.154007
H     1.7045329998   -1.8490550003    0.0000350000   0.045147   0.089193   0.114051  -0.051473   0.169817
O    -0.5815070002   -1.5258170020   -0.0002350000  -0.316911  -0.391731  -0.365406  -0.554371  -0.568376
O    -1.1752100006    0.6435319987   -0.0000180000  -0.124713  -0.170569  -0.218629  -0.383364  -0.224689
C    -2.5341269973    0.2379179999   -0.0002810000  -0.004023  -0.097666  -0.118580   0.434120  -0.357462
H    -2.7619819994   -0.3591960000    0.8919649985   0.041238   0.074590   0.102742  -0.064803   0.154705
H    -2.7616740024   -0.3590779998   -0.8926840022   0.041238   0.074546   0.102743  -0.064684   0.154704
H    -3.1222489985    1.1608469986   -0.0003190000   0.044365   0.079583   0.104647  -0.056476   0.160551
14
Symbol, X, Y, Z atomic coordinates followed by atomic charges from H, SH, CM5, AVH-B, HLYGAt
N     2.5483500002   -1.3574960025   -0.0000740000  -0.157419  -0.430937  -0.620162  -0.505843  -1.161112
C     1.5190130001   -0.4479560001   -0.0000260000   0.052613   0.118519   0.105896   0.317697   0.657111
C    -0.6019049984    1.4198049998    0.0000110000  -0.072455  -0.136453  -0.124656  -0.146102  -0.105345
C     1.7770469997    0.9340649986   -0.0000150000  -0.073616  -0.137784  -0.120575  -0.203020  -0.380760
C     0.1839280002   -0.8844980012   -0.0000200000  -0.077367  -0.156921  -0.121138  -0.204216  -0.279945
C    -0.8440169976    0.0495060000   -0.0000020000   0.026097   0.063663   0.019208   0.169895  -0.002262
C     0.7266830003    1.8432299975    0.0000030000  -0.035131  -0.061725  -0.089944   0.077940  -0.156669
H     2.8092040010    1.2888239985   -0.0000240000   0.037704   0.073808   0.096303   0.040418   0.176644
H    -0.0471590000   -1.9500170009   -0.0000300000   0.041265   0.082483   0.100963   0.047438   0.145294
Cl   -2.4981679983   -0.5266170002    0.0000080000  -0.074880  -0.082002  -0.076424  -0.140043  -0.092329
H     0.9462370005    2.9118239984    0.0000120000   0.046415   0.084853   0.101879   0.017068   0.159256
H    -1.4257270008    2.1311270017    0.0000250000   0.043343   0.086752   0.099771   0.044981   0.116864
H     3.5073149985   -1.0558480004    0.0001410000   0.121437   0.247422   0.314171   0.241473   0.458458
H     2.3706830009   -2.3469920018    0.0001190000   0.121997   0.248327   0.314698   0.242320   0.464796
10
Symbol, X, Y, Z atomic coordinates followed by atomic charges from H, SH, CM5, AVH-B, HLYGAt
C     1.2121220002   -0.2206770000    0.0208310000  -0.051056  -0.125782  -0.137819   0.413727  -0.203418
N     0.0000000000    0.5521520004   -0.1371030001  -0.155260  -0.262795  -0.531905  -0.486783  -0.578849
H     1.2729429988   -0.7641769996    0.9868679994   0.014826   0.031524   0.072874  -0.108171   0.081753
H     1.2785329993   -0.9691609996   -0.7833369983   0.031564   0.062142   0.092152  -0.077036   0.130890
H     2.0893600023    0.4341070001   -0.0625080002   0.034578   0.065955   0.094646  -0.069623   0.097658
H     0.0000000000    1.3515770019    0.4857379998   0.095434   0.195080   0.288196   0.169021   0.365083
C    -1.2121210000   -0.2206770000    0.0208310000  -0.051056  -0.125741  -0.137819   0.413295  -0.203416
H    -2.0893600023    0.4341070001   -0.0625080002   0.034578   0.065964   0.094646  -0.069448   0.097657
H    -1.2785319992   -0.9691609996   -0.7833369983   0.031564   0.062187   0.092152  -0.076907   0.130890
H    -1.2729429988   -0.7641769996    0.9868669992   0.014826   0.031466   0.072874  -0.108074   0.081752
14
Symbol, X, Y, Z atomic coordinates followed by atomic charges from H, SH, CM5, AVH-B, HLYGAt
C     0.0000070000    0.0000310000    0.0013960000   0.111079   0.199431   0.095763   0.125818   0.749412
C    -1.2751289981   -0.7062969986   -0.4336020000  -0.095088  -0.242645  -0.237264   0.173426  -0.693766
H    -2.1562239982   -0.1747780002   -0.0514570000   0.037162   0.079023   0.089708  -0.042565   0.182826
H    -1.2918360011   -1.7351909979   -0.0515490000   0.037163   0.078898   0.089708  -0.042695   0.182913
H    -1.3366830024   -0.7403500019   -1.5302059977   0.037017   0.078349   0.089028  -0.046205   0.179844
F    -0.0000530000   -0.0001150000    1.4126409987  -0.159828  -0.180237  -0.189299  -0.251383  -0.304955
C     0.0258910000    1.4575599999   -0.4333819998  -0.095087  -0.241982  -0.237265   0.171120  -0.693403
C     1.2493330008   -0.7510699998   -0.4335029999  -0.095089  -0.242567  -0.237265   0.174382  -0.694127
H    -0.8568389985    1.9864019982   -0.0513080000   0.037163   0.078839   0.089708  -0.042088   0.182838
H     0.0272620000    1.5280509976   -1.5299770016   0.037024   0.077925   0.089030  -0.045515   0.179711
H     0.9267179975    1.9547839985   -0.0510980000   0.037162   0.078822   0.089710  -0.042147   0.182828
H     2.1486729993   -0.2512519999   -0.0510950000   0.037163   0.078914   0.089710  -0.042739   0.182929
H     1.3098400015   -0.7870870020   -1.5301019985   0.037016   0.078283   0.089027  -0.046438   0.179940
H     1.2294159983   -1.7799780011   -0.0516380000   0.037163   0.078964   0.089706  -0.042953   0.183010
8
Symbol, X, Y, Z atomic coordinates followed by atomic charges from H, SH, CM5, AVH-B, HLYGAt
H    -1.3335660005   -1.2866090003    0.0091470000   0.025935   0.066788   0.080025   0.047273   0.269480
C    -1.2543879979   -0.1973509998    0.0104410000  -0.158836  -0.272501  -0.253301  -0.310543  -0.740615
C    -0.0689679998    0.4258070000    0.0026770000  -0.001738   0.010991   0.002167   0.248422   0.171728
H    -2.1754979975    0.3821289999    0.0022290000   0.028441   0.072415   0.081004   0.052126   0.214551
N     1.1774070015   -0.1725390001   -0.0579360001  -0.167496  -0.416902  -0.629011  -0.485542  -0.725839
H    -0.0302900000    1.5184479976   -0.0018130000   0.043635   0.073101   0.108447  -0.005232   0.136805
H     1.2256480025   -1.1619819991    0.1409019998   0.116114   0.235581   0.306301   0.229054   0.353406
H     1.9608469988    0.3511879999    0.3011480000   0.113947   0.230528   0.304368   0.224443   0.320484
10
Symbol, X, Y, Z atomic coordinates followed by atomic charges from H, SH, CM5, AVH-B, HLYGAt
H    -0.2986950001    2.1609059994    0.0000240000   0.060718   0.115330   0.117583   0.080768   0.210383
Cl   -2.2076620023   -0.0148720000    0.0000400000  -0.044970  -0.057088  -0.038006  -0.135738  -0.099802
C    -0.4641179997   -0.0114200000    0.0000250000   0.096773   0.163740   0.177198   0.378658   0.635677
H     2.2254320005    2.0048610011   -0.0000070000   0.060116   0.097357   0.125339   0.003161   0.025047
H     1.9827589994   -2.1202800013   -0.0000140000   0.059281   0.090476   0.134956  -0.018166  -0.011637
N     2.2394570011   -0.0673150000   -0.0000100000  -0.162108  -0.214382  -0.355260  -0.422014  -0.831912
N     0.1443430000   -1.1753129996    0.0000130000  -0.156376  -0.216876  -0.345958  -0.410671  -0.754640
C     0.2189129999    1.2040280019    0.0000170000  -0.051340  -0.144142  -0.091277  -0.237088  -0.684431
C     1.6044849994    1.1053129989    0.0000000000   0.046058   0.046171   0.074999   0.307333   0.663337
C     1.4772930022   -1.1514410007   -0.0000030000   0.091846   0.119412   0.200435   0.453754   0.847979
6
Symbol, X, Y, Z atomic coordinates followed by atomic charges from H, SH, CM5, AVH-B, HLYGAt
C     0.6650930014    0.0000000000    0.0000010000  -0.081408  -0.165080  -0.184102  -0.048526  -0.348363
C    -0.6650920012    0.0000000000    0.0000010000  -0.081408  -0.165116  -0.184102  -0.044024  -0.348363
H     1.2364490016   -0.9306359991    0.0000010000   0.040702   0.082695   0.092052   0.023641   0.174181
H     1.2364490016    0.9306359991    0.0000010000   0.040702   0.082449   0.092052   0.023625   0.174181
H    -1.2364480014   -0.9306359991    0.0000010000   0.040702   0.082533   0.092052   0.022630   0.174181
H    -1.2364480014    0.9306359991    0.0000010000   0.040702   0.082508   0.092052   0.022644   0.174181
17
Symbol, X, Y, Z atomic coordinates followed by atomic charges from H, SH, CM5, AVH-B, HLYGAt
H    -0.8062840007    2.1626239997   -0.2480649999   0.036807   0.072245   0.092067  -0.022129   0.084726
C    -0.3196179997    1.2687330025    0.1650950002  -0.059278  -0.140718  -0.162099   0.038986  -0.170974
H    -0.4392209999    1.3043479994    1.2600849980   0.031662   0.063941   0.088883  -0.037478   0.112816
C     1.1678619993    1.2305939997   -0.1970229999  -0.052107  -0.117277  -0.155767   0.052421  -0.168221
C    -1.0163649986    0.0183130000   -0.3406300001   0.071760   0.095073   0.033540   0.303131   0.162212
H     1.8189519980   -0.0934270002    1.3788699992   0.015448   0.027084   0.078387  -0.106363   0.062004
H     2.8470770023   -0.1331710001   -0.0748029998   0.035418   0.061968   0.099533  -0.065423   0.085018
H     1.5361160023   -2.0797729993   -0.1106680001   0.100835   0.204434   0.294562   0.184485   0.374730
H     1.6864819978    2.0863530004    0.2568339997   0.035195   0.068031   0.089832  -0.030266   0.069641
H     1.2879549996    1.3137460014   -1.2879740023   0.030500   0.060312   0.088382  -0.042572   0.103868
C     1.8052910025   -0.0759140000    0.2675409999  -0.014616  -0.041483  -0.063381   0.370628   0.016383
F    -2.3333690012    0.0037900000    0.1107330000  -0.153982  -0.170461  -0.184941  -0.264518  -0.272492
C    -0.3149550002   -1.2410319990    0.1499920001  -0.022157  -0.072431  -0.065923   0.298552  -0.154760
H    -1.0515880021    0.0118450000   -1.4409490002   0.034951   0.051951   0.097464  -0.060073   0.121922
N     1.0682240001   -1.1998310022   -0.2856839999  -0.148792  -0.268459  -0.517935  -0.478027  -0.683313
H    -0.8088549976   -2.1259209986   -0.2715620001   0.038853   0.069708   0.103799  -0.050512   0.138349
H    -0.4234090002   -1.2828150008    1.2544460010   0.019500   0.036079   0.083583  -0.090846   0.118091
10
Symbol, X, Y, Z atomic coordinates followed by atomic charges from H, SH, CM5, AVH-B, HLYGAt
H    -1.9823400022   -0.6187180009    1.2077619980   0.039718   0.075579   0.100638  -0.063171   0.151699
C    -1.8252309978   -0.6624260011    0.1208700002  -0.042497  -0.137118  -0.129629   0.401339  -0.245012
H    -1.2501149977   -1.5759959981   -0.1081370000   0.026246   0.052174   0.085863  -0.085168   0.124132
N    -1.1561490004    0.5462179977   -0.3148139999  -0.121062  -0.247581  -0.502848  -0.475830  -0.434932
H    -2.8083789978   -0.7295070021   -0.3599340000   0.041481   0.077275   0.101899  -0.058074   0.109856
H    -1.1519960018    0.6642530013   -1.3203069998   0.115245   0.228363   0.308739   0.206097   0.386788
C     0.0532889998    0.8762979981    0.2839620001   0.035847  -0.011414   0.002602   0.495945  -0.393986
H    -0.0187600000    0.8655780003    1.3767149991   0.048908   0.083388   0.114504  -0.049070   0.264948
H     0.4443169997    1.8306580011   -0.0780679999   0.051267   0.085529   0.116186  -0.042459   0.229728
Cl    1.4632570000   -0.3303490002   -0.0582710000  -0.195153  -0.206195  -0.197970  -0.329607  -0.193220
13
Symbol, X, Y, Z atomic coordinates followed by atomic charges from H, SH, CM5, AVH-B, HLYGAt
C     0.4434049998   -0.4978770001    0.0005510000  -0.046081  -0.184540  -0.137549  -0.101216  -0.113952
C    -0.5722279996    0.6348920007   -0.0006020000   0.002658  -0.106107  -0.041862   0.154148  -0.224212
N    -1.9446170014    0.0437690000   -0.0000890000   0.255399   0.379038   0.068118   0.605783   0.690761
O    -2.4486410013   -0.1908709999    1.0770449979  -0.208546  -0.261756  -0.168494  -0.378311  -0.404996
O    -2.4479760002   -0.1941899999   -1.0768090008  -0.208555  -0.261767  -0.168504  -0.378749  -0.405007
C     1.8523319990    0.0405550000   -0.0000370000   0.216087   0.345183   0.269735   0.690429   0.643975
O     2.1464510000    1.2070019990   -0.0013540000  -0.272464  -0.346632  -0.325692  -0.509329  -0.518020
O     2.7569110000   -0.9437200009    0.0010860000  -0.161627  -0.369516  -0.366038  -0.478705  -0.581472
H     0.3158579999   -1.1398139984    0.8842090016   0.059481   0.112616   0.121514   0.027475   0.106144
H     0.3158190000   -1.1416190007   -0.8817859997   0.059480   0.112668   0.121516   0.027495   0.106126
H    -0.4893580001    1.2522429992    0.8980890024   0.059206   0.107773   0.130596  -0.002814   0.133063
H    -0.4892680002    1.2504449979   -0.9005210003   0.059214   0.107804   0.130603  -0.002689   0.133083
H     3.6373759988   -0.5456109997    0.0006380000   0.185749   0.365237   0.366057   0.346484   0.434507
18
Symbol, X, Y, Z atomic coordinates followed by atomic charges from H, SH, CM5, AVH-B, HLYGAt
F    -0.5040000001    2.3047870023    0.0000000000  -0.157505  -0.174539  -0.188516  -0.275127  -0.291318
C    -0.5707209981    0.9114510021    0.0000000000   0.074609   0.105304   0.030409   0.382544   0.259781
H    -1.6438349978    0.6542669987    0.0000000000   0.032205   0.046345   0.092221  -0.074186   0.064542
C     0.0866670000    0.3765370001    1.2604730013  -0.058936  -0.140698  -0.163758   0.004712  -0.244761
C     0.0866670000    0.3765370001   -1.2604730013  -0.058936  -0.140784  -0.163758   0.004481  -0.244761
H    -0.9598709974   -1.5155830005    1.3236619992   0.027824   0.054479   0.083144  -0.056444   0.038586
H     0.5919290025   -1.5272149982    2.1612840013   0.033405   0.064109   0.087624  -0.040859   0.039274
H     0.6799820002   -2.8159339973    0.0000000000   0.031498   0.061274   0.085654  -0.039882   0.032268
H    -0.4316729998    0.7742270009    2.1437699978   0.035355   0.069827   0.090629  -0.021715   0.084207
H     1.1232270022    0.7487209980    1.2924319975   0.032616   0.065034   0.089294  -0.031343   0.105882
C     0.0807039999   -1.1548810018    1.2627450025  -0.048876  -0.104840  -0.158031   0.130812  -0.036884
H    -0.4316729998    0.7742270009   -2.1437699978   0.035355   0.069667   0.090629  -0.021694   0.084207
C     0.0807039999   -1.1548810018   -1.2627450025  -0.048876  -0.105127  -0.158031   0.131479  -0.036884
H     1.1232270022    0.7487209980   -1.2924319975   0.032616   0.065244   0.089294  -0.031359   0.105882
C     0.7356479978   -1.7180460003    0.0000000000  -0.051704  -0.109718  -0.161016   0.086407  -0.089492
H     0.5919290025   -1.5272149982   -2.1612840013   0.033405   0.064310   0.087624  -0.040973   0.039274
H    -0.9598709974   -1.5155830005   -1.3236619992   0.027824   0.054615   0.083144  -0.056646   0.038586
H     1.8066579995   -1.4551890002    0.0000000000   0.028118   0.055498   0.083462  -0.050206   0.051610
7
Symbol, X, Y, Z atomic coordinates followed by atomic charges from H, SH, CM5, AVH-B, HLYGAt
C    -0.7042959996    0.0000090000    0.0168080000  -0.051647  -0.122347  -0.142448   0.419510   0.277153
N     0.7430460011    0.0000290000   -0.1122109999  -0.214594  -0.423597  -0.675473  -0.533197  -0.928935
H    -1.1162500018   -0.8831369997   -0.4903749998   0.032885   0.063748   0.092666  -0.071636   0.010684
H    -1.0807270024   -0.0001540000    1.0567380024   0.016139   0.032451   0.073175  -0.104181  -0.061455
H    -1.1162460012    0.8833169994   -0.4900950000   0.032885   0.063768   0.092666  -0.071790   0.010683
H     1.1596029983   -0.8172060014    0.3207209998   0.092167   0.192972   0.279707   0.180625   0.345935
H     1.1595969974    0.8171610001    0.3209219998   0.092167   0.193005   0.279707   0.180669   0.345934
10
Symbol, X, Y, Z atomic coordinates followed by atomic charges from H, SH, CM5, AVH-B, HLYGAt
C    -0.3327849998    1.1209850001    0.0000130000  -0.038403  -0.069422  -0.022742   0.039485  -0.239823
C     0.9823659978    0.7124780001   -0.0000020000  -0.095089  -0.144943  -0.140377  -0.132507  -0.177825
C     0.9823749991   -0.7124649982    0.0000080000  -0.095089  -0.144967  -0.140377  -0.132187  -0.177825
C    -0.3327709999   -1.1209890007    0.0000100000  -0.038403  -0.069585  -0.022742   0.040116  -0.239823
N    -1.1186379986   -0.0000070000   -0.0000200000  -0.048247  -0.172546  -0.420895  -0.201093  -0.110906
H    -0.7691719986    2.1150620018    0.0000190000   0.046217   0.084067   0.109587   0.027703   0.176342
H     1.8505749984    1.3658999981   -0.0000060000   0.040767   0.083671   0.096075   0.047395   0.151487
H     1.8505920008   -1.3658770000    0.0000130000   0.040767   0.083653   0.096075   0.047346   0.151487
H    -0.7691460001   -2.1150719980    0.0000140000   0.046217   0.084168   0.109587   0.027417   0.176342
H    -2.1255770017   -0.0000130000   -0.0000350000   0.141259   0.265900   0.335800   0.236321   0.290544
13
Symbol, X, Y, Z atomic coordinates followed by atomic charges from H, SH, CM5, AVH-B, HLYGAt
C    -2.8746360011    0.8841340013   -0.0191830000  -0.092626  -0.268059  -0.232760   0.072511  -0.636354
C    -1.6041459979    1.6973629978   -0.1267160002   0.166007   0.275576   0.184740   0.433988   0.654549
H    -3.7392809984    1.4986739999   -0.2893800000   0.046768   0.097271   0.101254  -0.015092   0.185934
H    -2.9906249992    0.5247570000    1.0145910008   0.047304   0.095890   0.099135  -0.017694   0.161746
H    -2.8243250016   -0.0051910000   -0.6637770012   0.044333   0.090984   0.096091  -0.022744   0.150398
C    -0.3012709998    0.9379940018    0.0456140000  -0.054206  -0.151670  -0.157527  -0.030228   0.045093
C     0.9386130016    1.8163249982    0.0293710000  -0.089191  -0.205567  -0.236220   0.212997  -0.337159
H    -0.2616790002    0.1795390002   -0.7548269992   0.042321   0.080783   0.097569  -0.012071   0.015923
H    -0.3728939997    0.3579520001    0.9808280025   0.040970   0.078480   0.096197  -0.014790   0.008935
H     1.0103610016    2.3725760001   -0.9137199976   0.035204   0.074757   0.088452  -0.052016   0.091872
H     1.8446880024    1.2078029987    0.1464510002   0.032043   0.067942   0.082797  -0.056819   0.089901
H     0.9065269976    2.5536550017    0.8418210021   0.034894   0.073818   0.087783  -0.053135   0.091607
O    -1.6276619982    2.8885880017   -0.3331440000  -0.253818  -0.310201  -0.307513  -0.444903  -0.522444
6
Symbol, X, Y, Z atomic coordinates followed by atomic charges from H, SH, CM5, AVH-B, HLYGAt
C    -2.5848790025    1.3880930024    0.0592790000   0.143353   0.163509   0.138010   0.410624   0.375650
C    -1.0624079986    1.4613360021    0.1572910001   0.143353   0.163262   0.138010   0.411404   0.375650
O    -3.1546620022    1.6027110016   -0.9746210025  -0.200825  -0.242911  -0.257695  -0.377230  -0.404540
O    -0.4926239998    1.2467219981    1.1911909989  -0.200826  -0.242891  -0.257695  -0.377572  -0.404541
H    -3.1075709985    1.1247210018    1.0071349997   0.057472   0.079385   0.119685  -0.033502   0.028891
H    -0.5397169975    1.7247070025   -0.7905659982   0.057472   0.079646   0.119685  -0.033723   0.028890
9
Symbol, X, Y, Z atomic coordinates followed by atomic charges from H, SH, CM5, AVH-B, HLYGAt
C    -3.7738790013    0.0371180000    0.0619770000   0.157551   0.238432   0.185244   0.295642   0.551481
C    -2.2271550015   -0.0258820000   -0.0613720001   0.134320   0.158933   0.131585   0.449787   0.333021
C    -4.4859230020   -1.2868559990    0.0168090000  -0.087532  -0.277964  -0.226899   0.089984  -0.453998
H    -4.2566799999   -1.8042960012   -0.9280049988   0.053148   0.105820   0.104815  -0.012464   0.121289
H    -5.5661259920   -1.1407550025    0.1102550001   0.056083   0.113086   0.110297  -0.001414   0.156108
H    -4.1225929983   -1.9362679979    0.8287430012   0.053160   0.105691   0.104827  -0.012474   0.121530
O    -4.3187610012    1.1005470014    0.1838430000  -0.215469  -0.264859  -0.264275  -0.369554  -0.453111
O    -1.5422249987    0.9535989986   -0.0400230000  -0.193992  -0.233976  -0.249194  -0.374448  -0.382298
H    -1.7877890007   -1.0480490025   -0.1722269999   0.042729   0.054835   0.103598  -0.065062   0.005979
27
Symbol, X, Y, Z atomic coordinates followed by atomic charges from H, SH, CM5, AVH-B, HLYGAt
C    -0.3301349999   -1.3217000006    0.3532640002  -0.052821  -0.085309  -0.107498  -0.000365  -0.093585
C     1.0145490000   -1.5099799981    0.0735799999  -0.061760  -0.116083  -0.109092  -0.124032  -0.372731
C     1.6802540001   -0.4907530001   -0.6166539981   0.025800   0.059554   0.087275   0.179572   0.391415
C     1.0262989990    0.6967329989   -1.0246420022  -0.034674  -0.037809  -0.032377  -0.073222   0.089157
C    -0.3371720001    0.8602279975   -0.7239319985  -0.050901  -0.087011  -0.102341   0.002736  -0.222257
C    -1.0013420015   -0.1462659998   -0.0416180000  -0.059912  -0.097746  -0.114773  -0.076915  -0.221483
H    -0.8678629980    1.7679740024   -1.0167379997   0.037224   0.071317   0.093391   0.012908   0.157905
H     1.5329139986   -2.4192780004    0.3812250001   0.040264   0.077592   0.097547   0.034989   0.177218
H    -0.8791069978   -2.0962019990    0.8905600013   0.039099   0.074478   0.094522   0.017942   0.133484
H    -2.0588260009   -0.0300300000    0.1982169999   0.037378   0.072702   0.092835   0.025776   0.148160
N     2.9874540000   -0.3959070001   -1.0282520015  -0.059233  -0.200425  -0.422100  -0.278433  -0.647608
C     2.0037730022    1.5094200016   -1.7065600025  -0.047030  -0.049729  -0.050633  -0.201404  -0.183864
C     3.1786420009    0.8028860004   -1.6776869985  -0.017898  -0.046056   0.000673   0.128959   0.111683
H     4.1455679995    1.0828849976   -2.0827810013   0.041637   0.076758   0.110390   0.003291   0.119828
H     3.6992880021   -1.0915909999   -0.8792279994   0.141498   0.268762   0.336845   0.245609   0.411239
C     1.7397939983    2.8601490023   -2.3035569987  -0.048352  -0.122775  -0.142356   0.234828  -0.199266
C     2.4599310024    3.1218819982   -3.6403460006   0.016436  -0.010994   0.012108   0.094212   0.033425
H     2.0214470024    3.6664069993   -1.6054500017   0.040350   0.075994   0.099716  -0.043235   0.153936
H     0.6539520007    2.9661949988   -2.4458859989   0.032492   0.058699   0.092324  -0.064074   0.067194
N     3.8824000020    3.2694339987   -3.4358239987  -0.184632  -0.409344  -0.642645  -0.475840  -0.807184
C     1.8243329999    4.3404259978   -4.3295919993   0.194516   0.308855   0.255055   0.625330   0.630523
H     2.2993080020    2.2441330015   -4.2900409982   0.036070   0.056169   0.108407  -0.034488   0.094887
O     2.3465860011    5.4169760192   -4.3913040000  -0.275270  -0.341228  -0.322164  -0.496266  -0.488133
O     0.6067339997    4.1440319991   -4.8682800011  -0.167505  -0.364271  -0.372015  -0.462194  -0.530799
H     4.3671289995    3.3887199984   -4.3195529996   0.103364   0.210616   0.293394   0.200943   0.338234
H     4.0688879991    4.1091169979   -2.8931470009   0.101821   0.210603   0.293153   0.197737   0.324442
H     0.3155830002    3.2329599990   -4.7584039998   0.172064   0.346703   0.350351   0.325661   0.384180
35
Symbol, X, Y, Z atomic coordinates followed by atomic charges from H, SH, CM5, AVH-B, HLYGAt
N    -2.1024449989   -2.0710849996   -0.0049430000  -0.066009  -0.258821  -0.408932  -0.460554  -0.691292
C    -3.3781739993   -2.5565629998   -0.2385190003   0.180212   0.294667   0.280406   0.558977   0.873586
C    -0.9538760017   -2.8272899974    0.1607139998   0.180716   0.295298   0.280867   0.564527   0.872790
C    -3.4816149993   -4.0623250004   -0.3793689999  -0.016017  -0.106908  -0.046027   0.192943  -0.621619
C    -1.1378590008   -4.3248290022    0.0146300000  -0.015984  -0.107547  -0.045982   0.182872  -0.536325
N    -2.2480000010   -4.6434519985   -0.8520879978  -0.092246  -0.111103  -0.362517  -0.364295  -0.135107
H    -4.2961550006   -4.2589900013   -1.0866579994   0.055307   0.101236   0.124592  -0.006514   0.211280
H    -3.8082499978   -4.4446230015    0.6133910014   0.033843   0.061184   0.099882  -0.052366   0.190236
H    -1.2486969986   -4.7258110017    1.0467560004   0.035120   0.063051   0.101438  -0.050040   0.161127
H    -0.1979359999   -4.7160359979   -0.3873899998   0.054685   0.101598   0.124787  -0.010685   0.205878
H    -2.0084139974   -1.0665379992    0.1046919998   0.148913   0.286850   0.348980   0.272851   0.360186
O    -4.3324180014   -1.8196670010   -0.2902729998  -0.281798  -0.346487  -0.326879  -0.488105  -0.554406
O     0.1026809999   -2.3135510025    0.4360390002  -0.281307  -0.346060  -0.326430  -0.488505  -0.560611
C    -2.3455109988   -6.0239359829   -1.3219059987   0.025349   0.031318   0.016762   0.139362   0.191075
C    -1.1751519975   -6.3995519998   -2.2235639997  -0.093564  -0.226525  -0.233818   0.169240  -0.584584
H    -1.0357459975   -5.6356660159   -2.9972150018   0.037749   0.079785   0.092775  -0.040262   0.167210
H    -1.3664569994   -7.3661120088   -2.7030210005   0.035250   0.076089   0.091227  -0.049383   0.158086
H    -0.2391830002   -6.5054599922   -1.6575500011   0.033185   0.070012   0.087605  -0.050758   0.173415
C    -2.5145800008   -7.0265279857   -0.1654609998  -0.016478  -0.061588  -0.056267   0.347786  -0.153753
H    -3.2553620018   -6.0388130064   -1.9397530003   0.034029   0.054613   0.107738  -0.041999   0.134780
N    -2.6897939991   -8.3997330053   -0.6004620009  -0.089345  -0.102619  -0.363401  -0.385237   0.042006
H    -3.3544110003   -6.7076870213    0.4883999999   0.018977   0.033880   0.086288  -0.097068   0.113686
H    -1.6045809975   -6.9963269956    0.4511940000   0.035627   0.064608   0.105858  -0.068901   0.154942
C    -2.4962940018   -9.3442460100    0.4775889999  -0.014132  -0.107779  -0.044576   0.186313  -0.810093
C    -3.9412709984   -8.6342969954   -1.2867200005  -0.014847  -0.106872  -0.045326   0.187748  -0.619445
C    -2.5626249999  -10.7829040063    0.0095920000   0.181101   0.295090   0.281285   0.560544   0.914168
H    -3.2535700014   -9.2325509885    1.2868489980   0.037539   0.067138   0.103501  -0.046775   0.244941
H    -1.5097410005   -9.2068049826    0.9354949995   0.056135   0.102423   0.125260  -0.006228   0.262401
N    -3.3288469996  -11.0030290258   -1.1224049995  -0.065120  -0.258665  -0.408254  -0.461518  -0.702656
O    -2.0183390018  -11.6911659907    0.5877260019  -0.279217  -0.343676  -0.324350  -0.485000  -0.551539
C    -4.0591409993  -10.0508689870   -1.8112000016   0.180967   0.295323   0.281175   0.562230   0.884833
H    -3.4024809978  -11.9616630185   -1.4474110001   0.150137   0.288756   0.350131   0.274767   0.360739
H    -4.0446309973   -7.9799359830   -2.1584400019   0.053374   0.098862   0.123495  -0.013641   0.197151
H    -4.8250649981   -8.4520920211   -0.6334720013   0.037515   0.067207   0.103640  -0.046562   0.200866
O    -4.7599090010  -10.3491080243   -2.7470960010  -0.279699  -0.344369  -0.324930  -0.485797  -0.553948
